*SPEF "ieee 1481-1999"
*DESIGN "controller"
*DATE "16:33:36 Thursday December 18, 2025"
*VENDOR "The OpenROAD Project"
*PROGRAM "OpenROAD"
*VERSION "edf00dff99f6c40d67a30c0e22a8191c5d2ed9d6"
*DESIGN_FLOW "NAME_SCOPE LOCAL" "PIN_CAP NONE"
*DIVIDER /
*DELIMITER :
*BUS_DELIMITER []
*T_UNIT 1 NS
*C_UNIT 1 PF
*R_UNIT 1 OHM
*L_UNIT 1 HENRY

*NAME_MAP
*3 adc_out[0]
*4 adc_out[1]
*5 adc_out[2]
*6 adc_out[3]
*7 adc_out[4]
*8 adc_out[5]
*9 adc_out[6]
*10 adc_out[7]
*11 clk
*12 comp
*13 comparator_clk
*14 dac_in[0]
*15 dac_in[1]
*16 dac_in[2]
*17 dac_in[3]
*18 dac_in[4]
*19 dac_in[5]
*20 dac_in[6]
*21 dac_in[7]
*22 dac_in_n[0]
*23 dac_in_n[1]
*24 dac_in_n[2]
*25 dac_in_n[3]
*26 dac_in_n[4]
*27 dac_in_n[5]
*28 dac_in_n[6]
*29 dac_in_n[7]
*30 rst_n
*31 _001_
*32 _002_
*33 _003_
*34 _004_
*35 _005_
*36 _006_
*37 _007_
*38 _008_
*39 _009_
*40 _010_
*41 _011_
*42 _012_
*43 _013_
*44 _014_
*45 _015_
*46 _016_
*47 _017_
*48 _018_
*49 _019_
*50 _020_
*51 _021_
*52 _022_
*53 _023_
*54 _024_
*55 _025_
*56 _026_
*57 _027_
*58 _028_
*59 _029_
*60 _030_
*61 _031_
*62 _032_
*63 _033_
*64 _034_
*65 _035_
*66 _036_
*67 _037_
*68 _038_
*69 _039_
*70 _040_
*71 _041_
*72 _042_
*73 _043_
*74 _044_
*75 _045_
*76 _046_
*77 _047_
*78 _048_
*79 _049_
*80 _050_
*81 _051_
*82 _052_
*83 _053_
*84 _054_
*85 _055_
*86 _056_
*87 _057_
*88 _058_
*89 _059_
*90 _060_
*91 _061_
*92 _062_
*93 _063_
*94 _064_
*95 _065_
*96 _066_
*97 _067_
*98 _068_
*99 _069_
*100 _070_
*101 _071_
*102 clknet_0_clk
*103 clknet_1_0__leaf_clk
*104 clknet_1_1__leaf_clk
*105 count\[0\]
*106 count\[1\]
*107 count\[2\]
*108 count\[3\]
*109 net1
*110 net10
*111 net11
*112 net12
*113 net13
*114 net14
*115 net15
*116 net16
*117 net17
*118 net18
*119 net19
*120 net2
*121 net20
*122 net21
*123 net22
*124 net23
*125 net24
*126 net25
*127 net26
*128 net27
*129 net28
*130 net29
*131 net3
*132 net30
*133 net31
*134 net32
*135 net33
*136 net34
*137 net35
*138 net36
*139 net37
*140 net38
*141 net39
*142 net4
*143 net40
*144 net41
*145 net42
*146 net43
*147 net44
*148 net45
*149 net46
*150 net47
*151 net5
*152 net6
*153 net7
*154 net8
*155 net9
*156 FILLER_0_102
*157 FILLER_0_110
*158 FILLER_0_113
*159 FILLER_0_125
*160 FILLER_0_137
*161 FILLER_0_141
*162 FILLER_0_153
*163 FILLER_0_160
*164 FILLER_0_169
*165 FILLER_0_18
*166 FILLER_0_181
*167 FILLER_0_193
*168 FILLER_0_197
*169 FILLER_0_209
*170 FILLER_0_221
*171 FILLER_0_225
*172 FILLER_0_237
*173 FILLER_0_249
*174 FILLER_0_253
*175 FILLER_0_26
*176 FILLER_0_265
*177 FILLER_0_277
*178 FILLER_0_281
*179 FILLER_0_287
*180 FILLER_0_29
*181 FILLER_0_41
*182 FILLER_0_53
*183 FILLER_0_57
*184 FILLER_0_6
*185 FILLER_0_69
*186 FILLER_0_81
*187 FILLER_0_85
*188 FILLER_0_93
*189 FILLER_1_106
*190 FILLER_1_11
*191 FILLER_1_113
*192 FILLER_1_121
*193 FILLER_1_143
*194 FILLER_1_151
*195 FILLER_1_169
*196 FILLER_1_181
*197 FILLER_1_193
*198 FILLER_1_212
*199 FILLER_1_225
*200 FILLER_1_237
*201 FILLER_1_249
*202 FILLER_1_261
*203 FILLER_1_273
*204 FILLER_1_279
*205 FILLER_1_28
*206 FILLER_1_281
*207 FILLER_1_40
*208 FILLER_1_52
*209 FILLER_1_57
*210 FILLER_1_69
*211 FILLER_1_81
*212 FILLER_1_89
*213 FILLER_2_122
*214 FILLER_2_130
*215 FILLER_2_138
*216 FILLER_2_141
*217 FILLER_2_153
*218 FILLER_2_163
*219 FILLER_2_17
*220 FILLER_2_171
*221 FILLER_2_177
*222 FILLER_2_185
*223 FILLER_2_226
*224 FILLER_2_238
*225 FILLER_2_250
*226 FILLER_2_253
*227 FILLER_2_26
*228 FILLER_2_265
*229 FILLER_2_277
*230 FILLER_2_285
*231 FILLER_2_3
*232 FILLER_2_46
*233 FILLER_2_58
*234 FILLER_2_72
*235 FILLER_2_85
*236 FILLER_2_94
*237 FILLER_3_101
*238 FILLER_3_109
*239 FILLER_3_113
*240 FILLER_3_125
*241 FILLER_3_150
*242 FILLER_3_185
*243 FILLER_3_191
*244 FILLER_3_204
*245 FILLER_3_216
*246 FILLER_3_225
*247 FILLER_3_237
*248 FILLER_3_249
*249 FILLER_3_261
*250 FILLER_3_273
*251 FILLER_3_279
*252 FILLER_3_28
*253 FILLER_3_281
*254 FILLER_3_287
*255 FILLER_3_3
*256 FILLER_3_40
*257 FILLER_3_52
*258 FILLER_3_57
*259 FILLER_3_74
*260 FILLER_3_78
*261 FILLER_3_95
*262 FILLER_4_111
*263 FILLER_4_119
*264 FILLER_4_125
*265 FILLER_4_131
*266 FILLER_4_139
*267 FILLER_4_151
*268 FILLER_4_159
*269 FILLER_4_179
*270 FILLER_4_19
*271 FILLER_4_191
*272 FILLER_4_195
*273 FILLER_4_197
*274 FILLER_4_205
*275 FILLER_4_211
*276 FILLER_4_223
*277 FILLER_4_235
*278 FILLER_4_247
*279 FILLER_4_251
*280 FILLER_4_253
*281 FILLER_4_265
*282 FILLER_4_27
*283 FILLER_4_277
*284 FILLER_4_285
*285 FILLER_4_29
*286 FILLER_4_33
*287 FILLER_4_42
*288 FILLER_4_54
*289 FILLER_4_7
*290 FILLER_4_75
*291 FILLER_4_83
*292 FILLER_4_85
*293 FILLER_4_93
*294 FILLER_5_111
*295 FILLER_5_133
*296 FILLER_5_156
*297 FILLER_5_179
*298 FILLER_5_187
*299 FILLER_5_19
*300 FILLER_5_199
*301 FILLER_5_207
*302 FILLER_5_221
*303 FILLER_5_225
*304 FILLER_5_23
*305 FILLER_5_237
*306 FILLER_5_249
*307 FILLER_5_261
*308 FILLER_5_273
*309 FILLER_5_279
*310 FILLER_5_281
*311 FILLER_5_287
*312 FILLER_5_48
*313 FILLER_5_57
*314 FILLER_5_69
*315 FILLER_5_7
*316 FILLER_5_77
*317 FILLER_5_99
*318 FILLER_6_100
*319 FILLER_6_112
*320 FILLER_6_124
*321 FILLER_6_136
*322 FILLER_6_141
*323 FILLER_6_162
*324 FILLER_6_175
*325 FILLER_6_180
*326 FILLER_6_192
*327 FILLER_6_197
*328 FILLER_6_233
*329 FILLER_6_245
*330 FILLER_6_25
*331 FILLER_6_251
*332 FILLER_6_253
*333 FILLER_6_265
*334 FILLER_6_277
*335 FILLER_6_285
*336 FILLER_6_29
*337 FILLER_6_52
*338 FILLER_6_56
*339 FILLER_6_7
*340 FILLER_6_81
*341 FILLER_6_85
*342 FILLER_6_93
*343 FILLER_7_111
*344 FILLER_7_117
*345 FILLER_7_129
*346 FILLER_7_144
*347 FILLER_7_156
*348 FILLER_7_162
*349 FILLER_7_169
*350 FILLER_7_181
*351 FILLER_7_196
*352 FILLER_7_20
*353 FILLER_7_206
*354 FILLER_7_218
*355 FILLER_7_225
*356 FILLER_7_237
*357 FILLER_7_249
*358 FILLER_7_261
*359 FILLER_7_273
*360 FILLER_7_279
*361 FILLER_7_281
*362 FILLER_7_287
*363 FILLER_7_3
*364 FILLER_7_46
*365 FILLER_7_50
*366 FILLER_7_81
*367 FILLER_7_93
*368 FILLER_8_113
*369 FILLER_8_121
*370 FILLER_8_138
*371 FILLER_8_144
*372 FILLER_8_169
*373 FILLER_8_189
*374 FILLER_8_195
*375 FILLER_8_197
*376 FILLER_8_21
*377 FILLER_8_223
*378 FILLER_8_227
*379 FILLER_8_239
*380 FILLER_8_251
*381 FILLER_8_253
*382 FILLER_8_265
*383 FILLER_8_273
*384 FILLER_8_279
*385 FILLER_8_287
*386 FILLER_8_45
*387 FILLER_8_7
*388 FILLER_9_102
*389 FILLER_9_110
*390 FILLER_9_113
*391 FILLER_9_121
*392 FILLER_9_133
*393 FILLER_9_141
*394 FILLER_9_15
*395 FILLER_9_153
*396 FILLER_9_159
*397 FILLER_9_167
*398 FILLER_9_169
*399 FILLER_9_173
*400 FILLER_9_178
*401 FILLER_9_190
*402 FILLER_9_201
*403 FILLER_9_209
*404 FILLER_9_21
*405 FILLER_9_216
*406 FILLER_9_225
*407 FILLER_9_235
*408 FILLER_9_247
*409 FILLER_9_251
*410 FILLER_9_257
*411 FILLER_9_26
*412 FILLER_9_273
*413 FILLER_9_279
*414 FILLER_9_29
*415 FILLER_9_45
*416 FILLER_9_53
*417 FILLER_9_57
*418 FILLER_9_64
*419 FILLER_9_70
*420 FILLER_9_76
*421 FILLER_9_83
*422 FILLER_9_85
*423 FILLER_9_97
*424 PHY_EDGE_ROW_0_Left_10
*425 PHY_EDGE_ROW_0_Right_0
*426 PHY_EDGE_ROW_1_Left_11
*427 PHY_EDGE_ROW_1_Right_1
*428 PHY_EDGE_ROW_2_Left_12
*429 PHY_EDGE_ROW_2_Right_2
*430 PHY_EDGE_ROW_3_Left_13
*431 PHY_EDGE_ROW_3_Right_3
*432 PHY_EDGE_ROW_4_Left_14
*433 PHY_EDGE_ROW_4_Right_4
*434 PHY_EDGE_ROW_5_Left_15
*435 PHY_EDGE_ROW_5_Right_5
*436 PHY_EDGE_ROW_6_Left_16
*437 PHY_EDGE_ROW_6_Right_6
*438 PHY_EDGE_ROW_7_Left_17
*439 PHY_EDGE_ROW_7_Right_7
*440 PHY_EDGE_ROW_8_Left_18
*441 PHY_EDGE_ROW_8_Right_8
*442 PHY_EDGE_ROW_9_Left_19
*443 PHY_EDGE_ROW_9_Right_9
*444 TAP_TAPCELL_ROW_0_20
*445 TAP_TAPCELL_ROW_0_21
*446 TAP_TAPCELL_ROW_0_22
*447 TAP_TAPCELL_ROW_0_23
*448 TAP_TAPCELL_ROW_0_24
*449 TAP_TAPCELL_ROW_0_25
*450 TAP_TAPCELL_ROW_0_26
*451 TAP_TAPCELL_ROW_0_27
*452 TAP_TAPCELL_ROW_0_28
*453 TAP_TAPCELL_ROW_0_29
*454 TAP_TAPCELL_ROW_1_30
*455 TAP_TAPCELL_ROW_1_31
*456 TAP_TAPCELL_ROW_1_32
*457 TAP_TAPCELL_ROW_1_33
*458 TAP_TAPCELL_ROW_1_34
*459 TAP_TAPCELL_ROW_2_35
*460 TAP_TAPCELL_ROW_2_36
*461 TAP_TAPCELL_ROW_2_37
*462 TAP_TAPCELL_ROW_2_38
*463 TAP_TAPCELL_ROW_2_39
*464 TAP_TAPCELL_ROW_3_40
*465 TAP_TAPCELL_ROW_3_41
*466 TAP_TAPCELL_ROW_3_42
*467 TAP_TAPCELL_ROW_3_43
*468 TAP_TAPCELL_ROW_3_44
*469 TAP_TAPCELL_ROW_4_45
*470 TAP_TAPCELL_ROW_4_46
*471 TAP_TAPCELL_ROW_4_47
*472 TAP_TAPCELL_ROW_4_48
*473 TAP_TAPCELL_ROW_4_49
*474 TAP_TAPCELL_ROW_5_50
*475 TAP_TAPCELL_ROW_5_51
*476 TAP_TAPCELL_ROW_5_52
*477 TAP_TAPCELL_ROW_5_53
*478 TAP_TAPCELL_ROW_5_54
*479 TAP_TAPCELL_ROW_6_55
*480 TAP_TAPCELL_ROW_6_56
*481 TAP_TAPCELL_ROW_6_57
*482 TAP_TAPCELL_ROW_6_58
*483 TAP_TAPCELL_ROW_6_59
*484 TAP_TAPCELL_ROW_7_60
*485 TAP_TAPCELL_ROW_7_61
*486 TAP_TAPCELL_ROW_7_62
*487 TAP_TAPCELL_ROW_7_63
*488 TAP_TAPCELL_ROW_7_64
*489 TAP_TAPCELL_ROW_8_65
*490 TAP_TAPCELL_ROW_8_66
*491 TAP_TAPCELL_ROW_8_67
*492 TAP_TAPCELL_ROW_8_68
*493 TAP_TAPCELL_ROW_8_69
*494 TAP_TAPCELL_ROW_9_70
*495 TAP_TAPCELL_ROW_9_71
*496 TAP_TAPCELL_ROW_9_72
*497 TAP_TAPCELL_ROW_9_73
*498 TAP_TAPCELL_ROW_9_74
*499 TAP_TAPCELL_ROW_9_75
*500 TAP_TAPCELL_ROW_9_76
*501 TAP_TAPCELL_ROW_9_77
*502 TAP_TAPCELL_ROW_9_78
*503 TAP_TAPCELL_ROW_9_79
*504 _072_
*505 _073_
*506 _074_
*507 _075_
*508 _076_
*509 _077_
*510 _078_
*511 _079_
*512 _080_
*513 _081_
*514 _082_
*515 _083__1
*516 _084_
*517 _085_
*518 _086_
*519 _087_
*520 _088_
*521 _089_
*522 _090_
*523 _091_
*524 _092_
*525 _093_
*526 _094_
*527 _095_
*528 _096_
*529 _097_
*530 _098_
*531 _099_
*532 _100_
*533 _101_
*534 _102_
*535 _103_
*536 _104_
*537 _105_
*538 _106_
*539 _107_
*540 _108_
*541 _109_
*542 _110_
*543 _111_
*544 _112_
*545 _113_
*546 _114_
*547 _115_
*548 _116_
*549 _117_
*550 _118_
*551 _119_
*552 _120_
*553 _121_
*554 _122_
*555 _123_
*556 _124_
*557 _125_
*558 _126_
*559 _127_
*560 _128_
*561 _129_
*562 _130_
*563 _131_
*564 _132_
*565 _133_
*566 _134_
*567 _135_
*568 _136_
*569 _137_
*570 _138_
*571 _139_
*572 _140_
*573 _141_
*574 _142_
*575 _143_
*576 _144_
*577 _145_
*578 _146_
*579 _147_
*580 _148_
*581 _149_
*582 _150_
*583 _151_
*584 _152_
*585 _153_
*586 _154_
*587 _155_
*588 _156_
*589 _157_
*590 _158_
*591 _159_
*592 _160_
*593 _161_
*594 _162_
*595 _163_
*596 _164_
*597 _165_
*598 _166_
*599 _167_
*600 _168_
*601 _169_
*602 _170_
*603 _171_
*604 _172_
*605 clkbuf_0_clk
*606 clkbuf_1_0__f_clk
*607 clkbuf_1_1__f_clk
*608 clkload0
*609 fanout28
*610 fanout30
*611 fanout31
*612 fanout32
*613 fanout33
*614 fanout34
*615 hold1
*616 hold10
*617 hold11
*618 hold12
*619 hold2
*620 hold3
*621 hold4
*622 hold5
*623 hold6
*624 hold7
*625 hold8
*626 hold9
*627 input1
*628 input2
*629 output10
*630 output11
*631 output12
*632 output13
*633 output14
*634 output15
*635 output16
*636 output17
*637 output18
*638 output19
*639 output20
*640 output21
*641 output22
*642 output23
*643 output24
*644 output25
*645 output26
*646 output27
*647 output3
*648 output4
*649 output5
*650 output6
*651 output7
*652 output8
*653 output9
*654 wire29

*PORTS
adc_out[0] O
adc_out[1] O
adc_out[2] O
adc_out[3] O
adc_out[4] O
adc_out[5] O
adc_out[6] O
adc_out[7] O
clk I
comp I
comparator_clk O
dac_in[0] O
dac_in[1] O
dac_in[2] O
dac_in[3] O
dac_in[4] O
dac_in[5] O
dac_in[6] O
dac_in[7] O
dac_in_n[0] O
dac_in_n[1] O
dac_in_n[2] O
dac_in_n[3] O
dac_in_n[4] O
dac_in_n[5] O
dac_in_n[6] O
dac_in_n[7] O
rst_n I

*D_NET *3 0.00104614
*CONN
*P adc_out[0] O
*I *647:X O *D sky130_fd_sc_hd__buf_2
*CAP
1 adc_out[0] 0.000195314
2 *647:X 0.000299145
3 *3:10 0.000494459
4 adc_out[0] adc_out[1] 0
5 adc_out[0] *30:13 0
6 *3:10 *4:10 5.72217e-05
7 *3:10 *30:13 0
*RES
1 *647:X *3:10 43.5825 
2 *3:10 adc_out[0] 8.672 
*END

*D_NET *4 0.0010653
*CONN
*P adc_out[1] O
*I *648:X O *D sky130_fd_sc_hd__buf_2
*CAP
1 adc_out[1] 0.000231827
2 *648:X 0.000272214
3 *4:10 0.000504041
4 adc_out[1] adc_out[2] 0
5 *4:10 *648:A 0
6 adc_out[0] adc_out[1] 0
7 *3:10 *4:10 5.72217e-05
*RES
1 *648:X *4:10 42.4846 
2 *4:10 adc_out[1] 8.84373 
*END

*D_NET *5 0.000827442
*CONN
*P adc_out[2] O
*I *649:X O *D sky130_fd_sc_hd__buf_2
*CAP
1 adc_out[2] 0.000130358
2 *649:X 0.000283363
3 *5:10 0.000413721
4 adc_out[2] adc_out[3] 0
5 adc_out[1] adc_out[2] 0
*RES
1 *649:X *5:10 42.2775 
2 *5:10 adc_out[2] 8.50027 
*END

*D_NET *6 0.000862493
*CONN
*P adc_out[3] O
*I *650:X O *D sky130_fd_sc_hd__buf_2
*CAP
1 adc_out[3] 0.000130358
2 *650:X 0.000300889
3 *6:10 0.000431247
4 adc_out[3] adc_out[4] 0
5 *6:10 *7:12 0
6 adc_out[2] adc_out[3] 0
*RES
1 *650:X *6:10 42.6296 
2 *6:10 adc_out[3] 8.50027 
*END

*D_NET *7 0.000906743
*CONN
*P adc_out[4] O
*I *651:X O *D sky130_fd_sc_hd__buf_2
*CAP
1 adc_out[4] 0.000209452
2 *651:X 0.000243919
3 *7:12 0.000453371
4 adc_out[4] adc_out[5] 0
5 *7:12 *39:8 0
6 adc_out[3] adc_out[4] 0
7 *6:10 *7:12 0
*RES
1 *651:X *7:12 49.5525 
2 *7:12 adc_out[4] 0.757867 
*END

*D_NET *8 0.00192179
*CONN
*P adc_out[5] O
*I *652:X O *D sky130_fd_sc_hd__buf_2
*CAP
1 adc_out[5] 0.00024763
2 *652:X 0.000449189
3 *8:14 0.000696819
4 adc_out[5] adc_out[6] 0
5 *8:14 *9:10 0.000120345
6 *8:14 *10:10 0.000313249
7 *8:14 *119:36 9.45591e-05
8 adc_out[4] adc_out[5] 0
*RES
1 *652:X *8:14 45.8818 
2 *8:14 adc_out[5] 8.84373 
*END

*D_NET *9 0.0015602
*CONN
*P adc_out[6] O
*I *653:X O *D sky130_fd_sc_hd__buf_2
*CAP
1 adc_out[6] 0.000305848
2 *653:X 0.000350913
3 *9:10 0.000656761
4 adc_out[6] adc_out[7] 0
5 *9:10 dac_in[7] 6.97776e-05
6 *9:10 *629:A 0
7 *9:10 *10:10 5.65594e-05
8 *9:10 *39:8 0
9 adc_out[5] adc_out[6] 0
10 *8:14 *9:10 0.000120345
*RES
1 *653:X *9:10 44.7011 
2 *9:10 adc_out[6] 9.01547 
*END

*D_NET *10 0.00206842
*CONN
*P adc_out[7] O
*I *629:X O *D sky130_fd_sc_hd__buf_2
*CAP
1 adc_out[7] 0.000232119
2 *629:X 0.000347148
3 *10:10 0.000579266
4 *10:10 dac_in[7] 0.000401185
5 *10:10 *21:8 3.87132e-05
6 *10:10 *119:36 0.00010018
7 adc_out[6] adc_out[7] 0
8 *8:14 *10:10 0.000313249
9 *9:10 *10:10 5.65594e-05
*RES
1 *629:X *10:10 48.6161 
2 *10:10 adc_out[7] 8.84373 
*END

*D_NET *11 0.00825559
*CONN
*P clk I
*I *605:A I *D sky130_fd_sc_hd__clkbuf_16
*CAP
1 clk 0.00386454
2 *605:A 0
3 *11:9 0.00386454
4 *11:9 *576:B 0
5 *11:9 *30:13 0
6 *11:9 *66:10 0.000191157
7 *11:9 *89:16 3.31683e-05
8 *11:9 *107:83 0.00019482
9 *11:9 *111:8 0
10 *11:9 *132:84 0
11 *11:9 *133:56 3.63658e-05
12 *11:9 *133:74 7.10051e-05
*RES
1 clk *11:9 39.6442 
2 *11:9 *605:A 38 
*END

*D_NET *12 0.000959261
*CONN
*P comp I
*I *627:A I *D sky130_fd_sc_hd__buf_1
*CAP
1 comp 0.000474359
2 *627:A 0.00041453
3 *12:22 5.98284e-05
4 *627:A *121:10 1.05441e-05
*RES
1 comp *627:A 47.7957 
2 comp *12:22 0.287467 
*END

*D_NET *13 0.000912223
*CONN
*P comparator_clk O
*I *630:X O *D sky130_fd_sc_hd__buf_2
*CAP
1 comparator_clk 0.000456112
2 *630:X 0.000456112
*RES
1 *630:X comparator_clk 47.904 
*END

*D_NET *14 0.00114555
*CONN
*P dac_in[0] O
*I *631:X O *D sky130_fd_sc_hd__buf_2
*CAP
1 dac_in[0] 4.49146e-05
2 *631:X 0.000527861
3 *14:8 0.000572776
*RES
1 *631:X *14:8 49.5896 
2 *14:8 dac_in[0] 1.02536 
*END

*D_NET *15 0.00118729
*CONN
*P dac_in[1] O
*I *632:X O *D sky130_fd_sc_hd__buf_2
*CAP
1 dac_in[1] 6.5784e-05
2 *632:X 0.000527861
3 *15:8 0.000593645
*RES
1 *632:X *15:8 49.5896 
2 *15:8 dac_in[1] 1.50179 
*END

*D_NET *16 0.00154136
*CONN
*P dac_in[2] O
*I *633:X O *D sky130_fd_sc_hd__buf_2
*CAP
1 dac_in[2] 0.000600781
2 *633:X 0.00016681
3 *16:8 0.000767591
4 *16:8 *641:A 6.17437e-06
*RES
1 *633:X *16:8 40.0507 
2 *16:8 dac_in[2] 13.0914 
*END

*D_NET *17 0.00114555
*CONN
*P dac_in[3] O
*I *634:X O *D sky130_fd_sc_hd__buf_2
*CAP
1 dac_in[3] 4.49146e-05
2 *634:X 0.000527861
3 *17:8 0.000572776
*RES
1 *634:X *17:8 49.5896 
2 *17:8 dac_in[3] 1.02536 
*END

*D_NET *18 0.00114555
*CONN
*P dac_in[4] O
*I *635:X O *D sky130_fd_sc_hd__buf_2
*CAP
1 dac_in[4] 4.49146e-05
2 *635:X 0.000527861
3 *18:8 0.000572776
*RES
1 *635:X *18:8 49.5896 
2 *18:8 dac_in[4] 1.02536 
*END

*D_NET *19 0.00114555
*CONN
*P dac_in[5] O
*I *636:X O *D sky130_fd_sc_hd__buf_2
*CAP
1 dac_in[5] 4.49146e-05
2 *636:X 0.000527861
3 *19:8 0.000572776
*RES
1 *636:X *19:8 49.5896 
2 *19:8 dac_in[5] 1.02536 
*END

*D_NET *20 0.00145732
*CONN
*P dac_in[6] O
*I *637:X O *D sky130_fd_sc_hd__buf_2
*CAP
1 dac_in[6] 0.000559043
2 *637:X 9.65168e-05
3 *20:8 0.000655559
4 *20:8 *652:A 0.000146197
*RES
1 *637:X *20:8 39.5743 
2 *20:8 dac_in[6] 12.1386 
*END

*D_NET *21 0.00167223
*CONN
*P dac_in[7] O
*I *638:X O *D sky130_fd_sc_hd__buf_2
*CAP
1 dac_in[7] 0.000464879
2 *638:X 0.000116398
3 *21:8 0.000581276
4 *9:10 dac_in[7] 6.97776e-05
5 *10:10 dac_in[7] 0.000401185
6 *10:10 *21:8 3.87132e-05
*RES
1 *638:X *21:8 39.5743 
2 *21:8 dac_in[7] 12.1386 
*END

*D_NET *22 0.00110381
*CONN
*P dac_in_n[0] O
*I *639:X O *D sky130_fd_sc_hd__buf_2
*CAP
1 dac_in_n[0] 2.40452e-05
2 *639:X 0.000527861
3 *22:8 0.000551906
*RES
1 *639:X *22:8 49.5896 
2 *22:8 dac_in_n[0] 0.548929 
*END

*D_NET *23 0.00141519
*CONN
*P dac_in_n[1] O
*I *640:X O *D sky130_fd_sc_hd__buf_2
*CAP
1 dac_in_n[1] 0.000621651
2 *640:X 8.32596e-05
3 *23:8 0.00070491
4 *23:8 *122:31 5.37348e-06
*RES
1 *640:X *23:8 39.0979 
2 *23:8 dac_in_n[1] 13.5679 
*END

*D_NET *24 0.0012916
*CONN
*P dac_in_n[2] O
*I *641:X O *D sky130_fd_sc_hd__buf_2
*CAP
1 dac_in_n[2] 0.000559043
2 *641:X 8.29906e-05
3 *24:8 0.000642033
4 *24:8 *641:A 7.53384e-06
*RES
1 *641:X *24:8 39.0979 
2 *24:8 dac_in_n[2] 12.1386 
*END

*D_NET *25 0.00118729
*CONN
*P dac_in_n[3] O
*I *642:X O *D sky130_fd_sc_hd__buf_2
*CAP
1 dac_in_n[3] 6.5784e-05
2 *642:X 0.000527861
3 *25:8 0.000593645
*RES
1 *642:X *25:8 49.5896 
2 *25:8 dac_in_n[3] 1.50179 
*END

*D_NET *26 0.00114555
*CONN
*P dac_in_n[4] O
*I *643:X O *D sky130_fd_sc_hd__buf_2
*CAP
1 dac_in_n[4] 4.49146e-05
2 *643:X 0.000527861
3 *26:8 0.000572776
*RES
1 *643:X *26:8 49.5896 
2 *26:8 dac_in_n[4] 1.02536 
*END

*D_NET *27 0.00114555
*CONN
*P dac_in_n[5] O
*I *644:X O *D sky130_fd_sc_hd__buf_2
*CAP
1 dac_in_n[5] 4.49146e-05
2 *644:X 0.000527861
3 *27:8 0.000572776
*RES
1 *644:X *27:8 49.5896 
2 *27:8 dac_in_n[5] 1.02536 
*END

*D_NET *28 0.00118729
*CONN
*P dac_in_n[6] O
*I *645:X O *D sky130_fd_sc_hd__buf_2
*CAP
1 dac_in_n[6] 6.5784e-05
2 *645:X 0.000527861
3 *28:8 0.000593645
*RES
1 *645:X *28:8 49.5896 
2 *28:8 dac_in_n[6] 1.50179 
*END

*D_NET *29 0.00114555
*CONN
*P dac_in_n[7] O
*I *646:X O *D sky130_fd_sc_hd__buf_2
*CAP
1 dac_in_n[7] 4.49146e-05
2 *646:X 0.000527861
3 *29:8 0.000572776
*RES
1 *646:X *29:8 49.5896 
2 *29:8 dac_in_n[7] 1.02536 
*END

*D_NET *30 0.000886078
*CONN
*P rst_n I
*I *628:A I *D sky130_fd_sc_hd__buf_1
*CAP
1 rst_n 0.000443039
2 *628:A 0
3 *30:13 0.000443039
4 adc_out[0] *30:13 0
5 *3:10 *30:13 0
6 *11:9 *30:13 0
*RES
1 rst_n *30:13 30.9764 
2 *30:13 *628:A 23 
*END

*D_NET *31 0.000591367
*CONN
*I *584:D I *D sky130_fd_sc_hd__dfxtp_1
*I *516:X O *D sky130_fd_sc_hd__and2b_1
*CAP
1 *584:D 8.8722e-05
2 *516:X 9.81802e-05
3 *31:8 0.000186902
4 *584:D *114:32 5.10495e-05
5 *31:8 *516:A_N 0
6 *31:8 *516:B 0.000166513
*RES
1 *516:X *31:8 40.2579 
2 *31:8 *584:D 39.6209 
*END

*D_NET *32 0.000574247
*CONN
*I *585:D I *D sky130_fd_sc_hd__dfxtp_1
*I *520:X O *D sky130_fd_sc_hd__o211a_1
*CAP
1 *585:D 5.4084e-05
2 *520:X 0.000104475
3 *32:8 0.000158559
4 *585:D *585:CLK 0.000146207
5 *32:8 *585:CLK 0.000110922
*RES
1 *520:X *32:8 39.9057 
2 *32:8 *585:D 39.6209 
*END

*D_NET *33 0.000284135
*CONN
*I *586:D I *D sky130_fd_sc_hd__dfxtp_1
*I *522:X O *D sky130_fd_sc_hd__o211a_1
*CAP
1 *586:D 0.000142068
2 *522:X 0.000142068
3 *586:D *522:A2 0
*RES
1 *522:X *586:D 48.4443 
*END

*D_NET *34 0.000679726
*CONN
*I *587:D I *D sky130_fd_sc_hd__dfxtp_1
*I *524:X O *D sky130_fd_sc_hd__o211a_1
*CAP
1 *587:D 0.000139484
2 *524:X 0.000147682
3 *34:8 0.000287166
4 *587:D *120:24 0.000105393
5 *34:8 *83:8 0
*RES
1 *524:X *34:8 40.2579 
2 *34:8 *587:D 41.0502 
*END

*D_NET *35 0.000496435
*CONN
*I *588:D I *D sky130_fd_sc_hd__dfxtp_1
*I *526:X O *D sky130_fd_sc_hd__o211a_1
*CAP
1 *588:D 1.06403e-05
2 *526:X 0.000218568
3 *35:10 0.000229209
4 *588:D *650:A 4.9054e-06
5 *588:D *87:10 8.15899e-06
6 *35:10 *649:A 2.49531e-05
7 *35:10 *130:33 0
*RES
1 *526:X *35:10 41.3557 
2 *35:10 *588:D 38.1916 
*END

*D_NET *36 0.00181823
*CONN
*I *617:A I *D sky130_fd_sc_hd__dlygate4sd3_1
*I *528:X O *D sky130_fd_sc_hd__o211a_1
*CAP
1 *617:A 0
2 *528:X 0.000602128
3 *36:10 0.000602128
4 *36:10 *508:A 0
5 *36:10 *619:A 5.3304e-05
6 *36:10 *636:A 0
7 *36:10 *79:49 0
8 *36:10 *80:62 0.000185428
9 *36:10 *86:10 0.000166513
10 *36:10 *139:10 5.50049e-05
11 *36:10 *148:12 0.000153723
*RES
1 *528:X *36:10 48.9371 
2 *36:10 *617:A 38 
*END

*D_NET *37 0.000760026
*CONN
*I *619:A I *D sky130_fd_sc_hd__dlygate4sd3_1
*I *530:X O *D sky130_fd_sc_hd__o211a_1
*CAP
1 *619:A 2.32701e-05
2 *530:X 0.000108058
3 *37:8 0.000131328
4 *619:A *148:12 5.3304e-05
5 *37:8 *79:49 0.000243587
6 *37:8 *80:62 8.32902e-05
7 *37:8 *103:71 6.38845e-05
8 *36:10 *619:A 5.3304e-05
*RES
1 *530:X *37:8 41.3143 
2 *37:8 *619:A 38.6214 
*END

*D_NET *38 0.000661798
*CONN
*I *591:D I *D sky130_fd_sc_hd__dfxtp_1
*I *532:X O *D sky130_fd_sc_hd__o211a_1
*CAP
1 *591:D 4.29729e-05
2 *532:X 8.11241e-05
3 *38:8 0.000124097
4 *591:D *103:134 0.00013185
5 *591:D *136:64 0.000172412
6 *38:8 *532:A1 0.000109343
7 *38:8 *136:64 0
*RES
1 *532:X *38:8 39.5536 
2 *38:8 *591:D 39.8902 
*END

*D_NET *39 0.00107059
*CONN
*I *621:A I *D sky130_fd_sc_hd__dlygate4sd3_1
*I *534:X O *D sky130_fd_sc_hd__o211a_1
*CAP
1 *621:A 4.9234e-05
2 *534:X 0.000255247
3 *39:8 0.000304481
4 *621:A *653:A 0.000182826
5 *621:A *130:54 0.000142318
6 *39:8 *629:A 2.55642e-05
7 *39:8 *88:10 0
8 *39:8 *110:10 0.000110922
9 *7:12 *39:8 0
10 *9:10 *39:8 0
*RES
1 *534:X *39:8 42.7229 
2 *39:8 *621:A 40.0507 
*END

*D_NET *40 0.00112344
*CONN
*I *593:D I *D sky130_fd_sc_hd__dfxtp_2
*I *547:X O *D sky130_fd_sc_hd__o21a_1
*CAP
1 *593:D 0
2 *547:X 0.000260585
3 *40:6 0.000260585
4 *40:6 *543:A1 5.70419e-05
5 *40:6 *547:A1 5.67058e-05
6 *40:6 *547:B1 0.00010018
7 *40:6 *95:12 8.97408e-05
8 *40:6 *112:10 0.000298606
*RES
1 *547:X *40:6 30.1309 
2 *40:6 *593:D 23 
*END

*D_NET *41 0.0012019
*CONN
*I *594:D I *D sky130_fd_sc_hd__dfxtp_1
*I *552:Y O *D sky130_fd_sc_hd__a31oi_1
*CAP
1 *594:D 4.51763e-05
2 *552:Y 0.000389102
3 *41:10 0.000434278
4 *594:D *548:B1 8.38361e-05
5 *41:10 *94:33 0.000137651
6 *41:10 *104:102 0.000111852
*RES
1 *552:Y *41:10 43.51 
2 *41:10 *594:D 38.9373 
*END

*D_NET *42 0.000753942
*CONN
*I *595:D I *D sky130_fd_sc_hd__dfxtp_1
*I *557:X O *D sky130_fd_sc_hd__o31a_1
*CAP
1 *595:D 1.84095e-05
2 *557:X 0.000274726
3 *42:8 0.000293135
4 *595:D *99:61 8.38361e-05
5 *595:D *104:94 8.38361e-05
6 *42:8 *558:B1 0
7 *42:8 *109:22 0
8 *42:8 *115:12 0
*RES
1 *557:X *42:8 42.3707 
2 *42:8 *595:D 38.9373 
*END

*D_NET *43 0.000509032
*CONN
*I *596:D I *D sky130_fd_sc_hd__dfxtp_1
*I *561:X O *D sky130_fd_sc_hd__o21a_1
*CAP
1 *596:D 2.35812e-05
2 *561:X 0.000103624
3 *43:8 0.000127205
4 *596:D *99:61 0.000127311
5 *596:D *104:86 0.000127311
6 *43:8 *564:B1 0
7 *43:8 *643:A 0
*RES
1 *561:X *43:8 39.5536 
2 *43:8 *596:D 39.4137 
*END

*D_NET *44 0.00146346
*CONN
*I *597:D I *D sky130_fd_sc_hd__dfxtp_1
*I *565:Y O *D sky130_fd_sc_hd__a31oi_1
*CAP
1 *597:D 7.17495e-06
2 *565:Y 0.000281209
3 *44:10 0.000288383
4 *597:D *509:A 1.64354e-05
5 *597:D *99:61 1.64354e-05
6 *44:10 *564:B1 8.48502e-06
7 *44:10 *565:A1 9.5877e-05
8 *44:10 *60:49 6.38845e-05
9 *44:10 *90:42 0.00035411
10 *44:10 *92:22 0.000270682
11 *44:10 *99:61 6.07826e-05
12 *44:10 *104:69 0
*RES
1 *565:Y *44:10 45.395 
2 *44:10 *597:D 38.1916 
*END

*D_NET *45 0.00135102
*CONN
*I *598:D I *D sky130_fd_sc_hd__dfxtp_1
*I *569:Y O *D sky130_fd_sc_hd__a31oi_1
*CAP
1 *598:D 7.97587e-05
2 *569:Y 0.000135103
3 *45:8 0.000214861
4 *598:D *103:44 0.000127305
5 *598:D *128:20 5.3304e-05
6 *598:D *148:12 0.000168171
7 *45:8 *574:A2 0
8 *45:8 *60:23 0
9 *45:8 *71:10 0.000137788
10 *45:8 *90:21 0.000116314
11 *45:8 *128:20 0.000318411
*RES
1 *569:Y *45:8 42.3707 
2 *45:8 *598:D 40.3666 
*END

*D_NET *46 0.000811873
*CONN
*I *599:D I *D sky130_fd_sc_hd__dfxtp_1
*I *573:X O *D sky130_fd_sc_hd__o31a_1
*CAP
1 *599:D 8.37112e-05
2 *573:X 9.40859e-05
3 *46:8 0.000177797
4 *599:D *599:CLK 3.46255e-05
5 *599:D *103:23 8.90284e-05
6 *599:D *120:24 8.37132e-05
7 *46:8 *515:A 2.50707e-05
8 *46:8 *536:A 0.000168211
9 *46:8 *103:44 5.56306e-05
*RES
1 *573:X *46:8 40.2579 
2 *46:8 *599:D 40.5893 
*END

*D_NET *47 0.00535282
*CONN
*I *600:D I *D sky130_fd_sc_hd__dfxtp_1
*I *575:X O *D sky130_fd_sc_hd__a211o_1
*CAP
1 *600:D 0.000491671
2 *575:X 0.00128304
3 *47:8 0.00177471
4 *600:D *532:A1 0.000190627
5 *600:D *600:CLK 1.12349e-05
6 *600:D *79:38 5.50049e-05
7 *600:D *80:124 0.000274514
8 *600:D *103:80 0.000349724
9 *600:D *103:82 0.00011742
10 *47:8 *575:A2 3.7122e-06
11 *47:8 *590:D 7.10068e-06
12 *47:8 *80:44 0.000483254
13 *47:8 *80:62 0.000147144
14 *47:8 *103:80 0.000161622
15 *47:8 *126:6 2.03764e-06
*RES
1 *575:X *47:8 43.0514 
2 *47:8 *600:D 35.1179 
*END

*D_NET *48 0.000436465
*CONN
*I *601:D I *D sky130_fd_sc_hd__dfxtp_1
*I *577:X O *D sky130_fd_sc_hd__and3_1
*CAP
1 *601:D 5.48656e-06
2 *577:X 0.000173475
3 *48:10 0.000178962
4 *601:D *601:CLK 1.64354e-05
5 *601:D *114:32 7.10068e-06
6 *48:10 *576:A 0
7 *48:10 *72:8 0
8 *48:10 *89:29 5.50049e-05
*RES
1 *577:X *48:10 40.5271 
2 *48:10 *601:D 38.1916 
*END

*D_NET *49 0.000604416
*CONN
*I *602:D I *D sky130_fd_sc_hd__dfxtp_1
*I *579:X O *D sky130_fd_sc_hd__and3_1
*CAP
1 *602:D 1.93686e-05
2 *579:X 0.000159743
3 *49:10 0.000179112
4 *602:D *104:34 8.90341e-05
5 *602:D *114:32 3.68467e-05
6 *49:10 *73:10 3.98859e-05
7 *49:10 *89:65 5.50106e-05
8 *49:10 *105:10 2.5415e-05
*RES
1 *579:X *49:10 40.5271 
2 *49:10 *602:D 38.9943 
*END

*D_NET *50 0.000591338
*CONN
*I *603:D I *D sky130_fd_sc_hd__dfxtp_2
*I *581:X O *D sky130_fd_sc_hd__and3_1
*CAP
1 *603:D 3.47594e-05
2 *581:X 0.000201705
3 *50:10 0.000236465
4 *603:D *104:49 8.90341e-05
5 *50:10 *547:B1 2.93747e-05
*RES
1 *581:X *50:10 40.5271 
2 *50:10 *603:D 38.9943 
*END

*D_NET *51 0.000600169
*CONN
*I *604:D I *D sky130_fd_sc_hd__dfxtp_1
*I *583:Y O *D sky130_fd_sc_hd__a21oi_1
*CAP
1 *604:D 2.17499e-05
2 *583:Y 0.000166471
3 *51:8 0.000188221
4 *604:D *90:69 5.92579e-05
5 *604:D *109:12 1.52322e-05
6 *51:8 *542:B 0
7 *51:8 *75:10 1.59208e-05
8 *51:8 *90:69 0.000133316
9 *51:8 *94:25 0
*RES
1 *583:Y *51:8 40.9621 
2 *51:8 *604:D 38.668 
*END

*D_NET *52 0.00172032
*CONN
*I *556:C I *D sky130_fd_sc_hd__and4bb_1
*I *572:B1 I *D sky130_fd_sc_hd__o211a_1
*I *549:X O *D sky130_fd_sc_hd__and4bb_1
*CAP
1 *556:C 0.000222199
2 *572:B1 1.50079e-05
3 *549:X 0.000126029
4 *52:10 0.000363235
5 *556:C *556:B_N 0.000121699
6 *556:C *78:29 1.01436e-05
7 *556:C *78:46 0.000258699
8 *556:C *107:55 7.73854e-05
9 *556:C *109:22 0.000224605
10 *572:B1 *572:A1 5.50049e-05
11 *572:B1 *132:54 5.50049e-05
12 *52:10 *556:B_N 6.07611e-06
13 *52:10 *78:29 6.16439e-05
14 *52:10 *98:10 6.68793e-05
15 *52:10 *114:30 0
16 *52:10 *133:24 5.67058e-05
*RES
1 *549:X *52:10 40.5271 
2 *52:10 *572:B1 38.6214 
3 *52:10 *556:C 44.4421 
*END

*D_NET *53 0.00188637
*CONN
*I *552:A2 I *D sky130_fd_sc_hd__a31oi_1
*I *550:X O *D sky130_fd_sc_hd__or4_1
*CAP
1 *552:A2 0
2 *550:X 0.000626629
3 *53:10 0.000626629
4 *53:10 *78:12 0
5 *53:10 *90:69 8.47923e-05
6 *53:10 *94:25 0
7 *53:10 *101:10 1.85961e-05
8 *53:10 *108:24 0.00052972
9 *53:10 *109:48 0
*RES
1 *550:X *53:10 48.9371 
2 *53:10 *552:A2 38 
*END

*D_NET *54 0.00056026
*CONN
*I *552:A3 I *D sky130_fd_sc_hd__a31oi_1
*I *551:Y O *D sky130_fd_sc_hd__nand3_1
*CAP
1 *552:A3 0.000108133
2 *551:Y 0.000108133
3 *552:A3 *551:A 0.000232933
4 *552:A3 *552:A1 5.67058e-05
5 *552:A3 *94:33 5.43562e-05
*RES
1 *551:Y *552:A3 49.3764 
*END

*D_NET *55 0.00081187
*CONN
*I *557:A1 I *D sky130_fd_sc_hd__o31a_1
*I *553:X O *D sky130_fd_sc_hd__o41a_1
*CAP
1 *557:A1 0
2 *553:X 0.000289681
3 *55:10 0.000289681
4 *55:10 *572:A1 5.70419e-05
5 *55:10 *58:8 0
6 *55:10 *78:46 3.39231e-05
7 *55:10 *109:32 0.000101657
8 *55:10 *115:12 0
9 *55:10 *133:10 0
10 *55:10 *133:14 3.71198e-05
11 *55:10 *133:24 2.76611e-06
*RES
1 *553:X *55:10 43.8207 
2 *55:10 *557:A1 38 
*END

*D_NET *56 0.00766755
*CONN
*I *558:A2 I *D sky130_fd_sc_hd__a21oi_1
*I *560:A3 I *D sky130_fd_sc_hd__a32o_1
*I *555:B I *D sky130_fd_sc_hd__and2_1
*I *571:A I *D sky130_fd_sc_hd__and2_1
*I *574:A1 I *D sky130_fd_sc_hd__a21oi_1
*I *554:Y O *D sky130_fd_sc_hd__nor3b_2
*CAP
1 *558:A2 0.000183818
2 *560:A3 0
3 *555:B 0.000188318
4 *571:A 0
5 *574:A1 0
6 *554:Y 0.000450698
7 *56:38 0.000230326
8 *56:34 0.000559121
9 *56:20 0.00022254
10 *56:14 0.000867415
11 *56:10 0.000978169
12 *56:8 0.000450698
13 *555:B *560:A2 0.000237565
14 *555:B *562:C_N 0.000133791
15 *555:B *62:10 0.000244278
16 *555:B *89:58 0.000130775
17 *555:B *109:32 0.000161806
18 *558:A2 *561:A1 0.000120935
19 *558:A2 *565:A1 5.3304e-05
20 *558:A2 *62:10 0.000139657
21 *558:A2 *89:37 0.000131744
22 *558:A2 *89:58 0.000202645
23 *56:8 *60:49 0
24 *56:8 *92:22 1.83564e-05
25 *56:8 *99:8 0
26 *56:8 *104:10 5.15924e-05
27 *56:8 *104:14 4.48568e-05
28 *56:8 *104:69 8.73148e-05
29 *56:14 *60:12 0.000371474
30 *56:14 *60:43 0.000170538
31 *56:14 *60:74 0.000125488
32 *56:20 *574:A2 0.000165593
33 *56:20 *60:23 0.000218013
34 *56:20 *78:54 0.000103101
35 *56:34 *560:B2 9.84851e-05
36 *56:34 *562:C_N 0.000146342
37 *56:34 *60:74 8.24045e-05
38 *56:34 *92:22 0.0002246
39 *56:38 *62:10 1.01436e-05
40 *56:38 *89:37 6.16439e-05
41 *56:38 *93:12 0
*RES
1 *554:Y *56:8 46.5964 
2 *56:8 *56:10 15 
3 *56:10 *56:14 13.5057 
4 *56:14 *56:20 35.075 
5 *56:20 *574:A1 23 
6 *56:14 *571:A 23 
7 *56:10 *56:34 21.815 
8 *56:34 *56:38 15.8493 
9 *56:38 *555:B 31.3271 
10 *56:38 *560:A3 23 
11 *56:34 *558:A2 43.9036 
*END

*D_NET *57 0.000326566
*CONN
*I *557:A2 I *D sky130_fd_sc_hd__o31a_1
*I *555:X O *D sky130_fd_sc_hd__and2_1
*CAP
1 *557:A2 7.39196e-05
2 *555:X 7.39196e-05
3 *557:A2 *557:A3 5.67058e-05
4 *557:A2 *89:58 0.00010018
5 *557:A2 *109:32 2.18409e-05
*RES
1 *555:X *557:A2 48.0507 
*END

*D_NET *58 0.00107875
*CONN
*I *557:A3 I *D sky130_fd_sc_hd__o31a_1
*I *556:X O *D sky130_fd_sc_hd__and4bb_1
*CAP
1 *557:A3 0.000235649
2 *556:X 0.000116678
3 *58:8 0.000352326
4 *557:A3 *133:10 1.39431e-05
5 *58:8 *611:A 0.000193379
6 *58:8 *108:24 3.70094e-05
7 *58:8 *109:22 2.70366e-05
8 *58:8 *133:10 4.60263e-05
9 *557:A2 *557:A3 5.67058e-05
10 *55:10 *58:8 0
*RES
1 *556:X *58:8 41.3143 
2 *58:8 *557:A3 41.9564 
*END

*D_NET *59 0.000499235
*CONN
*I *561:A1 I *D sky130_fd_sc_hd__o21a_1
*I *558:Y O *D sky130_fd_sc_hd__a21oi_1
*CAP
1 *561:A1 0.000156717
2 *558:Y 0.000156717
3 *561:A1 *558:A1 5.25848e-05
4 *561:A1 *89:58 1.22822e-05
5 *558:A2 *561:A1 0.000120935
*RES
1 *558:Y *561:A1 49.5007 
*END

*D_NET *60 0.00805077
*CONN
*I *562:C_N I *D sky130_fd_sc_hd__or3b_1
*I *560:B1 I *D sky130_fd_sc_hd__a32o_1
*I *564:A2 I *D sky130_fd_sc_hd__a21o_1
*I *563:B I *D sky130_fd_sc_hd__nand2_1
*I *568:C I *D sky130_fd_sc_hd__nand3_1
*I *574:A2 I *D sky130_fd_sc_hd__a21oi_1
*I *566:A2 I *D sky130_fd_sc_hd__a21o_1
*I *571:B I *D sky130_fd_sc_hd__and2_1
*I *559:Y O *D sky130_fd_sc_hd__nor2_2
*CAP
1 *562:C_N 0.000111845
2 *560:B1 0
3 *564:A2 0
4 *563:B 0
5 *568:C 0.000251266
6 *574:A2 0.000172105
7 *566:A2 0
8 *571:B 2.37985e-05
9 *559:Y 0.000270084
10 *60:74 0.000250409
11 *60:55 0.000333611
12 *60:49 0.000277644
13 *60:43 0.000408047
14 *60:23 0.000316996
15 *60:12 0.000321862
16 *60:10 0.000227357
17 *60:8 0.000270084
18 *562:C_N *560:A2 1.41077e-05
19 *562:C_N *62:10 0.00010018
20 *562:C_N *78:54 3.41272e-05
21 *568:C *99:16 0.00042905
22 *568:C *99:38 4.66047e-05
23 *571:B *569:A2 5.67058e-05
24 *574:A2 *616:A 9.84851e-05
25 *574:A2 *71:10 7.49745e-06
26 *574:A2 *126:27 1.4471e-05
27 *60:8 *559:B 5.79438e-05
28 *60:8 *99:8 6.07929e-05
29 *60:8 *107:55 0.000208809
30 *60:12 *569:A2 8.52481e-05
31 *60:12 *78:54 0.000575004
32 *60:23 *67:10 0
33 *60:23 *78:54 7.76364e-06
34 *60:23 *90:21 0
35 *60:23 *126:27 4.21594e-06
36 *60:43 *78:54 0.000300817
37 *60:49 *92:22 0
38 *60:49 *99:8 0
39 *60:49 *99:38 6.16531e-05
40 *60:49 *99:61 1.14452e-05
41 *60:55 *565:A2 1.59094e-05
42 *60:55 *90:42 2.18409e-05
43 *60:55 *92:22 3.91386e-05
44 *60:55 *99:16 0
45 *60:55 *99:38 9.84794e-05
46 *60:74 *560:B2 8.60475e-05
47 *60:74 *78:54 0.000675498
48 *60:74 *92:22 0.0002263
49 *555:B *562:C_N 0.000133791
50 *44:10 *60:49 6.38845e-05
51 *45:8 *574:A2 0
52 *45:8 *60:23 0
53 *56:8 *60:49 0
54 *56:14 *60:12 0.000371474
55 *56:14 *60:43 0.000170538
56 *56:14 *60:74 0.000125488
57 *56:20 *574:A2 0.000165593
58 *56:20 *60:23 0.000218013
59 *56:34 *562:C_N 0.000146342
60 *56:34 *60:74 8.24045e-05
*RES
1 *559:Y *60:8 43.4271 
2 *60:8 *60:10 15 
3 *60:10 *60:12 7.76786 
4 *60:12 *571:B 23.6214 
5 *60:12 *60:23 18.3143 
6 *60:23 *566:A2 38 
7 *60:23 *574:A2 41.7079 
8 *60:10 *60:43 3.48 
9 *60:43 *60:49 33.3143 
10 *60:49 *60:55 2.56857 
11 *60:55 *568:C 29.815 
12 *60:55 *563:B 23 
13 *60:49 *564:A2 23 
14 *60:43 *60:74 7.63321 
15 *60:74 *560:B1 23 
16 *60:74 *562:C_N 27.2775 
*END

*D_NET *61 0.000195475
*CONN
*I *561:A2 I *D sky130_fd_sc_hd__o21a_1
*I *560:X O *D sky130_fd_sc_hd__a32o_1
*CAP
1 *561:A2 0
2 *560:X 5.04402e-05
3 *61:8 5.04402e-05
4 *61:8 *62:10 8.85189e-05
5 *61:8 *89:58 0
6 *61:8 *93:12 6.07611e-06
*RES
1 *560:X *61:8 39.2014 
2 *61:8 *561:A2 38 
*END

*D_NET *62 0.00200427
*CONN
*I *565:A1 I *D sky130_fd_sc_hd__a31oi_1
*I *562:X O *D sky130_fd_sc_hd__or3b_1
*CAP
1 *565:A1 0.000305076
2 *562:X 0.000241046
3 *62:10 0.000546123
4 *565:A1 *564:B1 2.64616e-05
5 *565:A1 *89:37 5.50106e-05
6 *565:A1 *89:58 2.18409e-05
7 *62:10 *89:37 1.22803e-05
8 *62:10 *89:58 5.67058e-05
9 *62:10 *93:12 7.76364e-06
10 *555:B *62:10 0.000244278
11 *558:A2 *565:A1 5.3304e-05
12 *558:A2 *62:10 0.000139657
13 *562:C_N *62:10 0.00010018
14 *44:10 *565:A1 9.5877e-05
15 *56:38 *62:10 1.01436e-05
16 *61:8 *62:10 8.85189e-05
*RES
1 *562:X *62:10 44.2143 
2 *62:10 *565:A1 43.8621 
*END

*D_NET *63 0.000779761
*CONN
*I *565:A2 I *D sky130_fd_sc_hd__a31oi_1
*I *563:Y O *D sky130_fd_sc_hd__nand2_1
*CAP
1 *565:A2 0.000271923
2 *563:Y 0.000271923
3 *565:A2 *564:B1 0.000185428
4 *565:A2 *90:42 2.81406e-06
5 *565:A2 *92:22 3.17634e-05
6 *60:55 *565:A2 1.59094e-05
*RES
1 *563:Y *565:A2 49.9564 
*END

*D_NET *64 0.000126903
*CONN
*I *565:A3 I *D sky130_fd_sc_hd__a31oi_1
*I *564:X O *D sky130_fd_sc_hd__a21o_1
*CAP
1 *565:A3 6.74574e-06
2 *564:X 6.74574e-06
3 *565:A3 *564:B1 5.67058e-05
4 *565:A3 *92:22 5.67058e-05
*RES
1 *564:X *565:A3 46.6214 
*END

*D_NET *65 0.000456179
*CONN
*I *569:A1 I *D sky130_fd_sc_hd__a31oi_1
*I *566:X O *D sky130_fd_sc_hd__a21o_1
*CAP
1 *569:A1 0
2 *566:X 9.3346e-05
3 *65:10 9.3346e-05
4 *65:10 *67:10 7.03663e-05
5 *65:10 *90:21 0.000156548
6 *65:10 *90:42 4.2573e-05
*RES
1 *566:X *65:10 40.5271 
2 *65:10 *569:A1 38 
*END

*D_NET *66 0.00139725
*CONN
*I *569:A2 I *D sky130_fd_sc_hd__a31oi_1
*I *567:X O *D sky130_fd_sc_hd__or4_1
*CAP
1 *569:A2 0.000149685
2 *567:X 0.000255677
3 *66:10 0.000405362
4 *569:A2 *69:8 0.00010018
5 *66:10 *70:12 5.50049e-05
6 *66:10 *78:54 1.01436e-05
7 *66:10 *107:70 5.3304e-05
8 *66:10 *107:83 3.47781e-05
9 *571:B *569:A2 5.67058e-05
10 *11:9 *66:10 0.000191157
11 *60:12 *569:A2 8.52481e-05
*RES
1 *567:X *66:10 43.3443 
2 *66:10 *569:A2 41.48 
*END

*D_NET *67 0.00105906
*CONN
*I *569:A3 I *D sky130_fd_sc_hd__a31oi_1
*I *568:Y O *D sky130_fd_sc_hd__nand3_1
*CAP
1 *569:A3 0
2 *568:Y 0.000335992
3 *67:10 0.000335992
4 *67:10 *90:21 7.76364e-06
5 *67:10 *90:42 0.000308946
6 *60:23 *67:10 0
7 *65:10 *67:10 7.03663e-05
*RES
1 *568:Y *67:10 43.7379 
2 *67:10 *569:A3 38 
*END

*D_NET *68 0.00045183
*CONN
*I *573:A1 I *D sky130_fd_sc_hd__o31a_1
*I *570:X O *D sky130_fd_sc_hd__o41a_1
*CAP
1 *573:A1 0.00015113
2 *570:X 0.00015113
3 *573:A1 *573:B1 5.50106e-05
4 *573:A1 *118:14 9.45591e-05
*RES
1 *570:X *573:A1 49.0243 
*END

*D_NET *69 0.00224835
*CONN
*I *575:A2 I *D sky130_fd_sc_hd__a211o_1
*I *573:A2 I *D sky130_fd_sc_hd__o31a_1
*I *571:X O *D sky130_fd_sc_hd__and2_1
*CAP
1 *575:A2 0.000202687
2 *573:A2 0.000178007
3 *571:X 0.000285559
4 *69:8 0.000666253
5 *573:A2 *80:25 0.000329214
6 *573:A2 *80:44 1.14452e-05
7 *575:A2 *80:44 0.000256776
8 *575:A2 *90:21 0
9 *575:A2 *126:6 5.41385e-05
10 *575:A2 *128:20 5.01247e-05
11 *69:8 *90:6 8.1796e-05
12 *69:8 *90:21 2.4754e-05
13 *69:8 *128:12 3.70553e-06
14 *569:A2 *69:8 0.00010018
15 *47:8 *575:A2 3.7122e-06
*RES
1 *571:X *69:8 42.4329 
2 *69:8 *573:A2 42.3707 
3 *69:8 *575:A2 43.1164 
*END

*D_NET *70 0.00489426
*CONN
*I *573:A3 I *D sky130_fd_sc_hd__o31a_1
*I *572:X O *D sky130_fd_sc_hd__o211a_1
*CAP
1 *573:A3 0.000210661
2 *572:X 0.00100111
3 *70:12 0.00121177
4 *573:A3 *570:A1 2.32004e-05
5 *573:A3 *570:A2 0.000141954
6 *573:A3 *570:A3 5.29672e-05
7 *573:A3 *570:A4 1.32939e-05
8 *573:A3 *118:14 0.000274078
9 *70:12 *570:A1 0.000156577
10 *70:12 *107:68 0.00038606
11 *70:12 *107:70 0.000216781
12 *70:12 *118:14 0
13 *70:12 *132:54 0.000626984
14 *70:12 *132:62 0.000413933
15 *70:12 *132:66 0.000109895
16 *66:10 *70:12 5.50049e-05
*RES
1 *572:X *70:12 48.5821 
2 *70:12 *573:A3 28.8621 
*END

*D_NET *71 0.000952829
*CONN
*I *575:B1 I *D sky130_fd_sc_hd__a211o_1
*I *574:Y O *D sky130_fd_sc_hd__a21oi_1
*CAP
1 *575:B1 0
2 *574:Y 0.000322003
3 *71:10 0.000322003
4 *71:10 *616:A 1.03836e-05
5 *71:10 *126:27 0
6 *71:10 *128:20 0.000153155
7 *574:A2 *71:10 7.49745e-06
8 *45:8 *71:10 0.000137788
*RES
1 *574:Y *71:10 43.4168 
2 *71:10 *575:B1 38 
*END

*D_NET *72 0.000339329
*CONN
*I *577:C I *D sky130_fd_sc_hd__and3_1
*I *576:X O *D sky130_fd_sc_hd__or2_1
*CAP
1 *577:C 4.71655e-05
2 *576:X 7.07864e-05
3 *72:8 0.000117952
4 *577:C *89:29 6.25714e-05
5 *72:8 *576:A 4.08537e-05
6 *48:10 *72:8 0
*RES
1 *576:X *72:8 39.2014 
2 *72:8 *577:C 38.7043 
*END

*D_NET *73 0.000900939
*CONN
*I *579:C I *D sky130_fd_sc_hd__and3_1
*I *578:X O *D sky130_fd_sc_hd__a21o_1
*CAP
1 *579:C 1.83048e-05
2 *578:X 0.00025179
3 *73:10 0.000270095
4 *579:C *89:65 1.95448e-05
5 *73:10 *578:A1 0.000293785
6 *73:10 *578:B1 7.53384e-06
7 *49:10 *73:10 3.98859e-05
*RES
1 *578:X *73:10 43.1164 
2 *73:10 *579:C 38.2279 
*END

*D_NET *74 0.00191941
*CONN
*I *581:C I *D sky130_fd_sc_hd__and3_1
*I *580:Y O *D sky130_fd_sc_hd__nand2_1
*CAP
1 *581:C 0.000204496
2 *580:Y 0.000144179
3 *74:10 0.000348674
4 *581:C *541:A 8.69799e-05
5 *581:C *541:B 0.000143655
6 *581:C *541:D 5.50106e-05
7 *581:C *547:B1 6.43503e-05
8 *581:C *95:6 2.80924e-06
9 *74:10 *541:A 0.000438468
10 *74:10 *541:D 0.000389433
11 *74:10 *107:21 2.7538e-05
12 *74:10 *133:119 1.38134e-05
*RES
1 *580:Y *74:10 43.7586 
2 *74:10 *581:C 42.6814 
*END

*D_NET *75 0.000835364
*CONN
*I *583:A2 I *D sky130_fd_sc_hd__a21oi_1
*I *582:Y O *D sky130_fd_sc_hd__nand2_1
*CAP
1 *583:A2 0
2 *582:Y 0.000391262
3 *75:10 0.000391262
4 *75:10 *542:B 0
5 *75:10 *582:A 3.22879e-05
6 *75:10 *90:69 4.6318e-06
7 *75:10 *113:10 0
8 *51:8 *75:10 1.59208e-05
*RES
1 *582:Y *75:10 43.7379 
2 *75:10 *583:A2 38 
*END

*D_NET *76 0.00369911
*CONN
*I *550:B I *D sky130_fd_sc_hd__or4_1
*I *553:A2 I *D sky130_fd_sc_hd__o41a_1
*I *572:A1 I *D sky130_fd_sc_hd__o211a_1
*I *580:A I *D sky130_fd_sc_hd__nand2_1
*I *504:Y O *D sky130_fd_sc_hd__inv_2
*CAP
1 *550:B 0.000217712
2 *553:A2 0
3 *572:A1 0.000239426
4 *580:A 0.000169368
5 *504:Y 9.55511e-05
6 *76:32 0.00024129
7 *76:19 0.000379852
8 *76:8 0.000381768
9 *550:B *108:24 8.62783e-05
10 *550:B *109:22 0.000180224
11 *550:B *133:14 7.70737e-05
12 *550:B *133:106 2.18409e-05
13 *572:A1 *91:55 9.58714e-05
14 *572:A1 *114:24 0.000138403
15 *572:A1 *132:54 0.000153723
16 *580:A *106:10 4.31565e-05
17 *580:A *108:24 3.39102e-05
18 *580:A *114:30 5.08615e-05
19 *76:8 *504:A 6.17437e-06
20 *76:8 *505:A 0.000272905
21 *76:8 *546:C1 2.80394e-05
22 *76:8 *134:8 6.32895e-05
23 *76:8 *134:14 5.3304e-05
24 *76:19 *108:24 0.000236721
25 *76:19 *114:30 9.96021e-06
26 *76:19 *133:24 0.000185755
27 *76:32 *108:24 6.16531e-05
28 *76:32 *133:14 1.14452e-05
29 *76:32 *133:24 5.15096e-05
30 *572:B1 *572:A1 5.50049e-05
31 *55:10 *572:A1 5.70419e-05
*RES
1 *504:Y *76:8 41.48 
2 *76:8 *580:A 40.9621 
3 *76:8 *76:19 3.31429 
4 *76:19 *572:A1 43.8829 
5 *76:19 *76:32 0.849286 
6 *76:32 *553:A2 38 
7 *76:32 *550:B 41.7286 
*END

*D_NET *77 0.000884286
*CONN
*I *546:A1 I *D sky130_fd_sc_hd__o2111a_1
*I *505:Y O *D sky130_fd_sc_hd__inv_2
*CAP
1 *546:A1 0
2 *505:Y 8.03772e-05
3 *77:6 8.03772e-05
4 *77:6 *505:A 0.00050208
5 *77:6 *546:B1 0.000168485
6 *77:6 *546:C1 5.29672e-05
*RES
1 *505:Y *77:6 27.9093 
2 *77:6 *546:A1 23 
*END

*D_NET *78 0.0122311
*CONN
*I *551:A I *D sky130_fd_sc_hd__nand3_1
*I *560:A1 I *D sky130_fd_sc_hd__a32o_1
*I *575:A1 I *D sky130_fd_sc_hd__a211o_1
*I *568:A I *D sky130_fd_sc_hd__nand3_1
*I *572:C1 I *D sky130_fd_sc_hd__o211a_1
*I *546:A2 I *D sky130_fd_sc_hd__o2111a_1
*I *514:Y O *D sky130_fd_sc_hd__inv_2
*CAP
1 *551:A 0.000368664
2 *560:A1 0
3 *575:A1 0.000304533
4 *568:A 0
5 *572:C1 0
6 *546:A2 0.000123234
7 *514:Y 0
8 *78:56 0.000304533
9 *78:54 0.00100688
10 *78:48 0.00100688
11 *78:46 0.000444006
12 *78:29 0.00129925
13 *78:12 0.00150511
14 *78:4 0.000895297
15 *546:A2 *546:B1 0
16 *546:A2 *546:D1 0
17 *546:A2 *133:119 0
18 *551:A *94:33 9.14899e-05
19 *575:A1 *566:A1 9.4713e-05
20 *575:A1 *568:B 1.14154e-05
21 *575:A1 *575:C1 4.00259e-06
22 *575:A1 *90:21 1.94812e-05
23 *575:A1 *90:42 8.82787e-05
24 *575:A1 *126:27 0.000265466
25 *78:12 *546:B1 0
26 *78:12 *109:48 8.62876e-05
27 *78:12 *114:24 0
28 *78:12 *133:119 0
29 *78:29 *114:24 6.51763e-05
30 *78:29 *114:30 0
31 *78:29 *132:46 0.00013961
32 *78:29 *132:54 0.000392386
33 *78:46 *556:B_N 0.000148012
34 *78:46 *89:37 0.000164291
35 *78:46 *92:8 0
36 *78:46 *107:55 0.000378217
37 *78:46 *109:32 6.16439e-05
38 *78:46 *114:30 0
39 *78:46 *115:14 0.000658443
40 *78:46 *133:24 0
41 *552:A3 *551:A 0.000232933
42 *556:C *78:29 1.01436e-05
43 *556:C *78:46 0.000258699
44 *562:C_N *78:54 3.41272e-05
45 *52:10 *78:29 6.16439e-05
46 *53:10 *78:12 0
47 *55:10 *78:46 3.39231e-05
48 *56:20 *78:54 0.000103101
49 *60:12 *78:54 0.000575004
50 *60:23 *78:54 7.76364e-06
51 *60:43 *78:54 0.000300817
52 *60:74 *78:54 0.000675498
53 *66:10 *78:54 1.01436e-05
*RES
1 *514:Y *78:4 23 
2 *78:4 *78:12 24.3629 
3 *78:12 *546:A2 39.9057 
4 *78:12 *78:29 42.4286 
5 *78:29 *572:C1 38 
6 *78:29 *78:46 44.7693 
7 *78:46 *78:48 15 
8 *78:48 *78:54 36.4393 
9 *78:54 *78:56 15 
10 *78:56 *568:A 23 
11 *78:56 *575:A1 29.8564 
12 *78:48 *560:A1 23 
13 *78:4 *551:A 29.2557 
*END

*D_NET *79 0.00826083
*CONN
*I *529:B I *D sky130_fd_sc_hd__or2_1
*I *527:B I *D sky130_fd_sc_hd__or2_1
*I *654:A I *D sky130_fd_sc_hd__buf_1
*I *523:B I *D sky130_fd_sc_hd__or2_1
*I *517:Y O *D sky130_fd_sc_hd__nor4b_1
*CAP
1 *529:B 0
2 *527:B 0
3 *654:A 0.000163142
4 *523:B 0
5 *517:Y 0.000794317
6 *79:49 0.000604946
7 *79:38 0.000293444
8 *79:23 0.00102909
9 *79:19 0.00134228
10 *79:10 0.000424499
11 *79:6 0.00105399
12 *79:6 *80:8 4.4553e-05
13 *79:6 *80:18 0.00100884
14 *79:6 *112:29 0.000156142
15 *79:10 *83:8 0
16 *79:10 *103:14 8.26672e-05
17 *79:10 *118:8 0
18 *79:19 *103:14 0.000118797
19 *79:19 *103:60 1.58805e-05
20 *79:19 *118:8 0
21 *79:19 *118:27 0
22 *79:23 *103:8 9.67842e-05
23 *79:38 *80:75 0
24 *79:38 *80:81 0
25 *79:38 *84:8 0.000141888
26 *79:38 *103:80 5.50049e-05
27 *79:38 *118:33 0
28 *79:38 *153:21 0.000188916
29 *79:49 *529:A 0.00010018
30 *79:49 *86:10 0
31 *79:49 *103:60 0.000103009
32 *79:49 *103:71 7.45175e-05
33 *79:49 *118:27 0
34 *79:49 *138:8 6.93449e-05
35 *600:D *79:38 5.50049e-05
36 *36:10 *79:49 0
37 *37:8 *79:49 0.000243587
*RES
1 *517:Y *79:6 36.0086 
2 *79:6 *79:10 19.3707 
3 *79:10 *523:B 38 
4 *79:10 *79:19 3.66643 
5 *79:19 *79:23 25.6264 
6 *79:23 *654:A 25.5271 
7 *79:23 *79:38 36.4007 
8 *79:38 *527:B 23 
9 *79:19 *79:49 27.9879 
10 *79:49 *529:B 23 
*END

*D_NET *80 0.0191708
*CONN
*I *535:B I *D sky130_fd_sc_hd__and2_2
*I *530:A2 I *D sky130_fd_sc_hd__o211a_1
*I *532:A2 I *D sky130_fd_sc_hd__o211a_1
*I *534:A2 I *D sky130_fd_sc_hd__o211a_1
*I *526:A2 I *D sky130_fd_sc_hd__o211a_1
*I *522:A2 I *D sky130_fd_sc_hd__o211a_1
*I *520:A2 I *D sky130_fd_sc_hd__o211a_1
*I *528:A2 I *D sky130_fd_sc_hd__o211a_1
*I *536:B I *D sky130_fd_sc_hd__nand2_2
*I *524:A2 I *D sky130_fd_sc_hd__o211a_1
*I *518:X O *D sky130_fd_sc_hd__or4b_4
*CAP
1 *535:B 0
2 *530:A2 1.34103e-05
3 *532:A2 2.49622e-05
4 *534:A2 0
5 *526:A2 3.53039e-05
6 *522:A2 2.39329e-05
7 *520:A2 0
8 *528:A2 0
9 *536:B 0.00010966
10 *524:A2 0
11 *518:X 0.000216167
12 *80:132 0.000748587
13 *80:124 0.000912917
14 *80:99 0.000184502
15 *80:91 0.000739344
16 *80:81 0.00130598
17 *80:75 0.00135637
18 *80:62 0.000822086
19 *80:44 0.000759791
20 *80:25 0.000845591
21 *80:18 0.000367791
22 *80:12 0.000749894
23 *80:8 0.000263872
24 *526:A2 *526:A1 1.12349e-05
25 *526:A2 *526:B1 1.14154e-05
26 *530:A2 *103:80 0
27 *530:A2 *136:83 4.00259e-06
28 *532:A2 *87:10 5.15635e-05
29 *536:B *536:A 5.3304e-05
30 *536:B *128:12 1.14762e-05
31 *80:8 *515:A 0
32 *80:8 *517:A 2.18506e-05
33 *80:8 *517:B 1.57571e-05
34 *80:8 *517:C 1.32939e-05
35 *80:8 *517:D_N 0.00010018
36 *80:8 *129:27 0.000313255
37 *80:12 *515:A 0
38 *80:12 *535:A 6.07611e-06
39 *80:12 *573:B1 2.78332e-05
40 *80:18 *515:A 8.91472e-06
41 *80:18 *524:B1 2.93747e-05
42 *80:18 *112:29 0.0001868
43 *80:18 *136:103 2.65445e-05
44 *80:18 *136:116 0.000500045
45 *80:18 *137:10 9.84851e-05
46 *80:25 *515:A 0
47 *80:25 *536:A 0.000646703
48 *80:25 *573:B1 0.000180788
49 *80:44 *508:A 0.000445374
50 *80:44 *536:A 5.01986e-05
51 *80:44 *103:44 0
52 *80:44 *126:6 1.94693e-05
53 *80:44 *136:83 5.2894e-05
54 *80:62 *528:C1 1.37232e-05
55 *80:62 *85:10 0
56 *80:62 *103:71 1.14452e-05
57 *80:62 *103:80 4.07902e-05
58 *80:62 *136:83 0.000197496
59 *80:62 *139:10 6.08751e-05
60 *80:62 *148:12 0.000319962
61 *80:75 *532:A1 0.000188926
62 *80:75 *637:A 3.70187e-05
63 *80:75 *118:33 5.3304e-05
64 *80:75 *118:37 0.00044458
65 *80:75 *127:10 5.70419e-05
66 *80:75 *136:64 3.34247e-05
67 *80:75 *136:83 4.75206e-05
68 *80:75 *148:12 3.91386e-05
69 *80:75 *154:8 0
70 *80:81 *525:B 0.000119056
71 *80:81 *526:A1 3.70553e-06
72 *80:81 *526:B1 4.45464e-05
73 *80:81 *526:C1 0.000182621
74 *80:81 *84:8 0
75 *80:81 *130:12 6.77032e-05
76 *80:91 *526:A1 4.46742e-06
77 *80:91 *649:A 0.000142173
78 *80:91 *130:33 0
79 *80:91 *136:16 0.000260102
80 *80:91 *136:26 5.50106e-05
81 *80:91 *151:12 2.04854e-05
82 *80:99 *585:CLK 5.59989e-05
83 *80:99 *103:92 4.21594e-06
84 *80:99 *112:29 5.04995e-05
85 *80:99 *113:18 2.31116e-05
86 *80:99 *130:33 9.38328e-05
87 *80:132 *534:A1 8.56776e-05
88 *80:132 *534:C1 0.000968513
89 *80:132 *651:A 3.65917e-05
90 *80:132 *87:10 0.000215735
91 *573:A2 *80:25 0.000329214
92 *573:A2 *80:44 1.14452e-05
93 *575:A2 *80:44 0.000256776
94 *586:D *522:A2 0
95 *600:D *80:124 0.000274514
96 *36:10 *80:62 0.000185428
97 *37:8 *80:62 8.32902e-05
98 *47:8 *80:44 0.000483254
99 *47:8 *80:62 0.000147144
100 *79:6 *80:8 4.4553e-05
101 *79:6 *80:18 0.00100884
102 *79:38 *80:75 0
103 *79:38 *80:81 0
*RES
1 *518:X *80:8 28.8829 
2 *80:8 *80:12 15.8493 
3 *80:12 *80:18 29.8107 
4 *80:18 *524:A2 23 
5 *80:12 *80:25 10.005 
6 *80:25 *536:B 40.0921 
7 *80:25 *80:44 28.34 
8 *80:44 *80:62 41.2064 
9 *80:62 *528:A2 23 
10 *80:62 *80:75 26.9314 
11 *80:75 *80:81 28.3814 
12 *80:81 *80:91 39.2179 
13 *80:91 *80:99 34.06 
14 *80:99 *520:A2 23 
15 *80:91 *522:A2 23.4971 
16 *80:81 *526:A2 23.8493 
17 *80:75 *80:124 33.0036 
18 *80:124 *80:132 31.9443 
19 *80:132 *534:A2 23 
20 *80:124 *532:A2 38.8493 
21 *80:44 *530:A2 23.4971 
22 *80:8 *535:B 23 
*END

*D_NET *81 0.00108868
*CONN
*I *520:B1 I *D sky130_fd_sc_hd__o211a_1
*I *519:X O *D sky130_fd_sc_hd__or2_1
*CAP
1 *520:B1 0
2 *519:X 0.000290527
3 *81:8 0.000290527
4 *81:8 *519:A 3.22051e-05
5 *81:8 *521:B 2.93747e-05
6 *81:8 *82:8 5.25848e-05
7 *81:8 *112:29 0.000106693
8 *81:8 *130:18 0.00013328
9 *81:8 *131:21 9.84851e-05
10 *81:8 *136:26 5.50049e-05
*RES
1 *519:X *81:8 30.3121 
2 *81:8 *520:B1 23 
*END

*D_NET *82 0.00234586
*CONN
*I *522:B1 I *D sky130_fd_sc_hd__o211a_1
*I *521:X O *D sky130_fd_sc_hd__or2_1
*CAP
1 *522:B1 7.06977e-05
2 *521:X 0.000663823
3 *82:8 0.00073452
4 *522:B1 *130:33 0.000162169
5 *522:B1 *136:26 0.000162169
6 *82:8 *521:B 9.70909e-05
7 *82:8 *622:A 0.000402806
8 *81:8 *82:8 5.25848e-05
*RES
1 *521:X *82:8 48.15 
2 *82:8 *522:B1 40.2579 
*END

*D_NET *83 0.000779853
*CONN
*I *524:B1 I *D sky130_fd_sc_hd__o211a_1
*I *523:X O *D sky130_fd_sc_hd__or2_1
*CAP
1 *524:B1 1.55527e-05
2 *523:X 0.000306241
3 *83:8 0.000321794
4 *524:B1 *136:103 3.22879e-05
5 *83:8 *103:14 7.03869e-05
6 *83:8 *114:38 4.21594e-06
7 *83:8 *151:29 0
8 *34:8 *83:8 0
9 *79:10 *83:8 0
10 *80:18 *524:B1 2.93747e-05
*RES
1 *523:X *83:8 43.075 
2 *83:8 *524:B1 38.6214 
*END

*D_NET *84 0.00159716
*CONN
*I *526:B1 I *D sky130_fd_sc_hd__o211a_1
*I *525:X O *D sky130_fd_sc_hd__or2_1
*CAP
1 *526:B1 0.000189432
2 *525:X 0.000242456
3 *84:8 0.000431888
4 *526:B1 *526:A1 0.000305746
5 *526:B1 *526:C1 0.000229793
6 *526:A2 *526:B1 1.14154e-05
7 *79:38 *84:8 0.000141888
8 *80:81 *526:B1 4.45464e-05
9 *80:81 *84:8 0
*RES
1 *525:X *84:8 42.7229 
2 *84:8 *526:B1 44.3593 
*END

*D_NET *85 0.00105469
*CONN
*I *528:B1 I *D sky130_fd_sc_hd__o211a_1
*I *527:X O *D sky130_fd_sc_hd__or2_1
*CAP
1 *528:B1 0
2 *527:X 0.000371175
3 *85:10 0.000371175
4 *85:10 *103:80 0.000312342
5 *85:10 *118:33 0
6 *80:62 *85:10 0
*RES
1 *527:X *85:10 43.3857 
2 *85:10 *528:B1 38 
*END

*D_NET *86 0.000940222
*CONN
*I *530:B1 I *D sky130_fd_sc_hd__o211a_1
*I *529:X O *D sky130_fd_sc_hd__or2_1
*CAP
1 *530:B1 0
2 *529:X 0.000352182
3 *86:10 0.000352182
4 *86:10 *636:A 0
5 *86:10 *138:8 6.93449e-05
6 *36:10 *86:10 0.000166513
7 *79:49 *86:10 0
*RES
1 *529:X *86:10 44.2971 
2 *86:10 *530:B1 38 
*END

*D_NET *87 0.00197924
*CONN
*I *532:B1 I *D sky130_fd_sc_hd__o211a_1
*I *531:X O *D sky130_fd_sc_hd__or2_1
*CAP
1 *532:B1 0
2 *531:X 0.000635927
3 *87:10 0.000635927
4 *87:10 *531:A 0.000141954
5 *87:10 *650:A 2.64351e-05
6 *87:10 *136:51 0.000114268
7 *87:10 *136:64 6.07611e-06
8 *87:10 *152:6 4.46957e-06
9 *87:10 *152:21 0.000138727
10 *532:A2 *87:10 5.15635e-05
11 *588:D *87:10 8.15899e-06
12 *80:132 *87:10 0.000215735
*RES
1 *531:X *87:10 48.9371 
2 *87:10 *532:B1 38 
*END

*D_NET *88 0.000858335
*CONN
*I *534:B1 I *D sky130_fd_sc_hd__o211a_1
*I *533:X O *D sky130_fd_sc_hd__or2_1
*CAP
1 *534:B1 0
2 *533:X 0.000352123
3 *88:10 0.000352123
4 *88:10 *103:90 0
5 *88:10 *130:54 9.84794e-05
6 *88:10 *141:10 5.561e-05
7 *39:8 *88:10 0
*RES
1 *533:X *88:10 44.1729 
2 *88:10 *534:B1 38 
*END

*D_NET *89 0.014521
*CONN
*I *573:B1 I *D sky130_fd_sc_hd__o31a_1
*I *579:A I *D sky130_fd_sc_hd__and3_1
*I *547:B1 I *D sky130_fd_sc_hd__o21a_1
*I *581:A I *D sky130_fd_sc_hd__and3_1
*I *557:B1 I *D sky130_fd_sc_hd__o31a_1
*I *561:B1 I *D sky130_fd_sc_hd__o21a_1
*I *577:A I *D sky130_fd_sc_hd__and3_1
*I *535:X O *D sky130_fd_sc_hd__and2_2
*CAP
1 *573:B1 0.000305084
2 *579:A 0
3 *547:B1 0.000118951
4 *581:A 0
5 *557:B1 0
6 *561:B1 0
7 *577:A 0
8 *535:X 0
9 *89:79 0.000296217
10 *89:73 0.000668898
11 *89:65 0.000686415
12 *89:58 0.000651253
13 *89:37 0.00149466
14 *89:29 0.00175442
15 *89:22 0.00119808
16 *89:16 0.000925227
17 *89:6 0.000748459
18 *547:B1 *95:6 3.53115e-05
19 *547:B1 *95:12 0.000156058
20 *573:B1 *516:A_N 6.07611e-06
21 *573:B1 *535:A 0
22 *573:B1 *609:A 0
23 *573:B1 *118:14 5.50106e-05
24 *573:B1 *129:10 9.52274e-05
25 *89:16 *516:A_N 5.56306e-05
26 *89:16 *516:B 0
27 *89:16 *111:8 0
28 *89:16 *114:32 0.000145065
29 *89:22 *537:A 0
30 *89:22 *577:B 2.81406e-06
31 *89:22 *129:27 0.000400204
32 *89:22 *129:38 0.000213069
33 *89:29 *577:B 3.06338e-05
34 *89:29 *112:29 0.000102224
35 *89:37 *578:A1 0
36 *89:37 *613:A 0.000262341
37 *89:37 *90:42 0
38 *89:37 *92:8 0
39 *89:37 *93:12 0
40 *89:37 *104:69 0
41 *89:37 *105:10 0.000187303
42 *89:37 *129:84 0
43 *89:58 *558:A1 5.50049e-05
44 *89:58 *93:12 0
45 *89:58 *94:44 0
46 *89:58 *109:32 0.000151096
47 *89:65 *93:6 1.14762e-05
48 *89:65 *129:105 5.3304e-05
49 *89:73 *578:A1 0.000166522
50 *89:73 *104:34 0.00143668
51 *89:73 *105:20 0.000164291
52 *89:73 *114:32 0.000255756
53 *89:79 *107:21 0
54 *555:B *89:58 0.000130775
55 *557:A2 *89:58 0.00010018
56 *558:A2 *89:37 0.000131744
57 *558:A2 *89:58 0.000202645
58 *561:A1 *89:58 1.22822e-05
59 *565:A1 *89:37 5.50106e-05
60 *565:A1 *89:58 2.18409e-05
61 *573:A1 *573:B1 5.50106e-05
62 *577:C *89:29 6.25714e-05
63 *579:C *89:65 1.95448e-05
64 *581:C *547:B1 6.43503e-05
65 *11:9 *89:16 3.31683e-05
66 *40:6 *547:B1 0.00010018
67 *48:10 *89:29 5.50049e-05
68 *49:10 *89:65 5.50106e-05
69 *50:10 *547:B1 2.93747e-05
70 *56:38 *89:37 6.16439e-05
71 *61:8 *89:58 0
72 *62:10 *89:37 1.22803e-05
73 *62:10 *89:58 5.67058e-05
74 *78:46 *89:37 0.000164291
75 *80:12 *573:B1 2.78332e-05
76 *80:25 *573:B1 0.000180788
*RES
1 *535:X *89:6 38 
2 *89:6 *89:16 38.4929 
3 *89:16 *89:22 22.7886 
4 *89:22 *577:A 23 
5 *89:22 *89:29 12.5321 
6 *89:29 *89:37 45.5564 
7 *89:37 *561:B1 23 
8 *89:37 *89:58 42.8429 
9 *89:58 *557:B1 23 
10 *89:29 *89:65 3.48 
11 *89:65 *89:73 48.125 
12 *89:73 *89:79 32.2579 
13 *89:79 *581:A 23 
14 *89:79 *547:B1 27.4536 
15 *89:65 *579:A 23 
16 *89:6 *573:B1 45.105 
*END

*D_NET *90 0.0112354
*CONN
*I *552:B1 I *D sky130_fd_sc_hd__a31oi_1
*I *583:B1 I *D sky130_fd_sc_hd__a21oi_1
*I *565:B1 I *D sky130_fd_sc_hd__a31oi_1
*I *575:C1 I *D sky130_fd_sc_hd__a211o_1
*I *569:B1 I *D sky130_fd_sc_hd__a31oi_1
*I *536:Y O *D sky130_fd_sc_hd__nand2_2
*CAP
1 *552:B1 0
2 *583:B1 1.91252e-05
3 *565:B1 0
4 *575:C1 3.83603e-05
5 *569:B1 0
6 *536:Y 3.56605e-05
7 *90:69 0.000727643
8 *90:59 0.00286139
9 *90:42 0.00323739
10 *90:21 0.00126628
11 *90:6 0.000179067
12 *575:C1 *566:A1 0
13 *583:B1 *583:A1 5.3304e-05
14 *583:B1 *108:24 5.50106e-05
15 *90:6 *128:12 4.06849e-05
16 *90:42 *566:A1 0.000222791
17 *90:42 *99:16 0.000453516
18 *90:42 *99:38 0.000172996
19 *90:42 *104:69 6.64545e-05
20 *90:59 *94:25 9.85586e-06
21 *90:59 *101:10 1.20966e-05
22 *90:59 *104:69 6.65598e-06
23 *90:69 *94:25 0.000146165
24 *90:69 *101:10 3.54739e-05
25 *90:69 *104:102 4.06849e-05
26 *90:69 *109:12 4.35306e-05
27 *565:A2 *90:42 2.81406e-06
28 *575:A1 *575:C1 4.00259e-06
29 *575:A1 *90:21 1.94812e-05
30 *575:A1 *90:42 8.82787e-05
31 *575:A2 *90:21 0
32 *604:D *90:69 5.92579e-05
33 *44:10 *90:42 0.00035411
34 *45:8 *90:21 0.000116314
35 *51:8 *90:69 0.000133316
36 *53:10 *90:69 8.47923e-05
37 *60:23 *90:21 0
38 *60:55 *90:42 2.18409e-05
39 *65:10 *90:21 0.000156548
40 *65:10 *90:42 4.2573e-05
41 *67:10 *90:21 7.76364e-06
42 *67:10 *90:42 0.000308946
43 *69:8 *90:6 8.1796e-05
44 *69:8 *90:21 2.4754e-05
45 *75:10 *90:69 4.6318e-06
46 *89:37 *90:42 0
*RES
1 *536:Y *90:6 24.5743 
2 *90:6 *569:B1 23 
3 *90:6 *90:21 33.8529 
4 *90:21 *575:C1 23.8493 
5 *90:21 *90:42 35.8593 
6 *90:42 *565:B1 38 
7 *90:42 *90:59 21.6784 
8 *90:59 *90:69 42.2629 
9 *90:69 *583:B1 38.6214 
10 *90:59 *552:B1 38 
*END

*D_NET *91 0.00825381
*CONN
*I *577:B I *D sky130_fd_sc_hd__and3_1
*I *550:D I *D sky130_fd_sc_hd__or4_1
*I *553:A4 I *D sky130_fd_sc_hd__o41a_1
*I *567:D I *D sky130_fd_sc_hd__or4_1
*I *570:A4 I *D sky130_fd_sc_hd__o41a_1
*I *537:Y O *D sky130_fd_sc_hd__nand2_1
*CAP
1 *577:B 0.000242172
2 *550:D 0
3 *553:A4 0
4 *567:D 0
5 *570:A4 0.00042629
6 *537:Y 0
7 *91:55 0.000296997
8 *91:42 0.00213917
9 *91:23 0.00186954
10 *91:10 0.000695859
11 *91:4 0.000484373
12 *570:A4 *570:A3 0.000436735
13 *570:A4 *118:14 1.14154e-05
14 *570:A4 *132:62 1.21972e-05
15 *570:A4 *132:66 1.21972e-05
16 *577:B *129:38 3.46673e-05
17 *577:B *135:61 4.17736e-05
18 *91:10 *99:8 0
19 *91:10 *129:53 0
20 *91:10 *132:84 0.000290399
21 *91:10 *135:37 3.13424e-05
22 *91:10 *135:61 0.00010018
23 *91:23 *559:B 0
24 *91:23 *99:8 0
25 *91:23 *132:84 5.46706e-05
26 *91:42 *559:B 0
27 *91:42 *113:18 0.00047386
28 *91:42 *132:84 2.55642e-05
29 *91:42 *133:24 2.05503e-05
30 *91:55 *611:A 5.97612e-05
31 *91:55 *107:34 6.68793e-05
32 *91:55 *107:49 2.60152e-05
33 *91:55 *109:22 6.16531e-05
34 *91:55 *114:24 0.000196945
35 *572:A1 *91:55 9.58714e-05
36 *573:A3 *570:A4 1.32939e-05
37 *89:22 *577:B 2.81406e-06
38 *89:29 *577:B 3.06338e-05
*RES
1 *537:Y *91:4 23 
2 *91:4 *91:10 20.1164 
3 *91:10 *570:A4 44.7114 
4 *91:10 *91:23 0.849286 
5 *91:23 *567:D 38 
6 *91:23 *91:42 36.8588 
7 *91:42 *553:A4 23 
8 *91:42 *91:55 36.09 
9 *91:55 *550:D 23 
10 *91:4 *577:B 26.48 
*END

*D_NET *92 0.0031069
*CONN
*I *560:B2 I *D sky130_fd_sc_hd__a32o_1
*I *564:A1 I *D sky130_fd_sc_hd__a21o_1
*I *538:X O *D sky130_fd_sc_hd__and3_1
*CAP
1 *560:B2 1.74373e-05
2 *564:A1 0
3 *538:X 0.000608889
4 *92:22 0.000248911
5 *92:10 0.000266348
6 *92:8 0.000608889
7 *92:8 *613:A 0
8 *92:8 *104:10 0
9 *92:8 *104:14 0
10 *92:8 *104:69 0
11 *92:8 *135:8 4.13358e-05
12 *92:22 *564:B1 7.72557e-05
13 *92:22 *104:69 0.000185755
14 *565:A2 *92:22 3.17634e-05
15 *565:A3 *92:22 5.67058e-05
16 *44:10 *92:22 0.000270682
17 *56:8 *92:22 1.83564e-05
18 *56:34 *560:B2 9.84851e-05
19 *56:34 *92:22 0.0002246
20 *60:49 *92:22 0
21 *60:55 *92:22 3.91386e-05
22 *60:74 *560:B2 8.60475e-05
23 *60:74 *92:22 0.0002263
24 *78:46 *92:8 0
25 *89:37 *92:8 0
*RES
1 *538:X *92:8 47.3007 
2 *92:8 *92:10 15 
3 *92:10 *92:22 38.6379 
4 *92:22 *564:A1 23 
5 *92:10 *560:B2 24.0979 
*END

*D_NET *93 0.00329594
*CONN
*I *580:B I *D sky130_fd_sc_hd__nand2_1
*I *579:B I *D sky130_fd_sc_hd__and3_1
*I *562:B I *D sky130_fd_sc_hd__or3b_1
*I *539:Y O *D sky130_fd_sc_hd__nand3_1
*CAP
1 *580:B 0.000320259
2 *579:B 0
3 *562:B 0
4 *539:Y 0
5 *93:12 0.000727394
6 *93:6 0.000883904
7 *93:4 0.000476769
8 *580:B *541:A 0.000139357
9 *580:B *541:D 5.15231e-05
10 *580:B *129:105 4.91851e-05
11 *580:B *129:116 0.000401106
12 *93:6 *129:105 4.39725e-05
13 *93:12 *556:B_N 0
14 *93:12 *560:A2 0
15 *93:12 *94:44 0
16 *93:12 *98:10 0
17 *93:12 *115:12 0
18 *93:12 *129:84 0.000177154
19 *56:38 *93:12 0
20 *61:8 *93:12 6.07611e-06
21 *62:10 *93:12 7.76364e-06
22 *89:37 *93:12 0
23 *89:58 *93:12 0
24 *89:65 *93:6 1.14762e-05
*RES
1 *539:Y *93:4 23 
2 *93:4 *93:6 2.05071 
3 *93:6 *93:12 41.4136 
4 *93:12 *562:B 23 
5 *93:6 *579:B 23 
6 *93:4 *580:B 31.1614 
*END

*D_NET *94 0.0079459
*CONN
*I *548:A1 I *D sky130_fd_sc_hd__a21o_1
*I *551:B I *D sky130_fd_sc_hd__nand3_1
*I *555:A I *D sky130_fd_sc_hd__and2_1
*I *560:A2 I *D sky130_fd_sc_hd__a32o_1
*I *558:A1 I *D sky130_fd_sc_hd__a21oi_1
*I *546:B1 I *D sky130_fd_sc_hd__o2111a_1
*I *540:X O *D sky130_fd_sc_hd__and2b_1
*CAP
1 *548:A1 0.000155564
2 *551:B 0
3 *555:A 0
4 *560:A2 0.0004537
5 *558:A1 9.01706e-05
6 *546:B1 0.00048218
7 *540:X 6.94194e-05
8 *94:44 0.000599666
9 *94:33 0.00130173
10 *94:27 0.0010656
11 *94:25 0.00048166
12 *94:8 0.000877695
13 *546:B1 *505:A 0.00010018
14 *546:B1 *543:A1 6.63801e-05
15 *546:B1 *546:C1 3.79854e-05
16 *546:B1 *132:10 4.41619e-05
17 *546:B1 *132:36 2.82307e-05
18 *548:A1 *548:B1 9.67842e-05
19 *548:A1 *551:C 4.96264e-05
20 *548:A1 *101:10 2.61617e-05
21 *558:A1 *558:B1 0.000141954
22 *560:A2 *109:32 0.000228903
23 *560:A2 *115:12 6.16531e-05
24 *94:8 *108:24 9.84794e-05
25 *94:25 *551:C 4.6318e-06
26 *94:25 *101:10 2.12347e-06
27 *94:25 *104:102 0
28 *94:33 *552:A1 2.93747e-05
29 *94:33 *558:B1 0.000139352
30 *94:44 *115:12 0.000245269
31 *546:A2 *546:B1 0
32 *551:A *94:33 9.14899e-05
33 *552:A3 *94:33 5.43562e-05
34 *555:B *560:A2 0.000237565
35 *561:A1 *558:A1 5.25848e-05
36 *562:C_N *560:A2 1.41077e-05
37 *41:10 *94:33 0.000137651
38 *51:8 *94:25 0
39 *53:10 *94:25 0
40 *77:6 *546:B1 0.000168485
41 *78:12 *546:B1 0
42 *89:58 *558:A1 5.50049e-05
43 *89:58 *94:44 0
44 *90:59 *94:25 9.85586e-06
45 *90:69 *94:25 0.000146165
46 *93:12 *560:A2 0
47 *93:12 *94:44 0
*RES
1 *540:X *94:8 39.0979 
2 *94:8 *546:B1 48.73 
3 *94:8 *94:25 5.42714 
4 *94:25 *94:27 15 
5 *94:27 *94:33 19.3679 
6 *94:33 *558:A1 25.5271 
7 *94:33 *94:44 18.3143 
8 *94:44 *560:A2 45.685 
9 *94:44 *555:A 38 
10 *94:27 *551:B 23 
11 *94:25 *548:A1 40.6514 
*END

*D_NET *95 0.00253132
*CONN
*I *581:B I *D sky130_fd_sc_hd__and3_1
*I *542:B I *D sky130_fd_sc_hd__or2_1
*I *582:B I *D sky130_fd_sc_hd__nand2_1
*I *543:A2 I *D sky130_fd_sc_hd__o21a_1
*I *541:Y O *D sky130_fd_sc_hd__nand4_1
*CAP
1 *581:B 0
2 *542:B 0.000161636
3 *582:B 0
4 *543:A2 0
5 *541:Y 0.00012829
6 *95:23 0.000419172
7 *95:12 0.000613095
8 *95:6 0.000483849
9 *542:B *543:A1 1.22803e-05
10 *542:B *132:10 6.79006e-05
11 *542:B *132:36 4.54033e-05
12 *95:6 *541:A 3.22879e-05
13 *95:12 *543:A1 5.50106e-05
14 *95:12 *547:A1 3.22879e-05
15 *95:23 *543:A1 0.00019619
16 *547:B1 *95:6 3.53115e-05
17 *547:B1 *95:12 0.000156058
18 *581:C *95:6 2.80924e-06
19 *40:6 *95:12 8.97408e-05
20 *51:8 *542:B 0
21 *75:10 *542:B 0
*RES
1 *541:Y *95:6 25.0507 
2 *95:6 *95:12 7.80929 
3 *95:12 *543:A2 23 
4 *95:12 *95:23 20.3443 
5 *95:23 *582:B 38 
6 *95:23 *542:B 41.3143 
7 *95:6 *581:B 23 
*END

*D_NET *96 0.000326634
*CONN
*I *583:A1 I *D sky130_fd_sc_hd__a21oi_1
*I *542:X O *D sky130_fd_sc_hd__or2_1
*CAP
1 *583:A1 4.34656e-05
2 *542:X 4.34656e-05
3 *583:A1 *542:A 0.000138444
4 *583:A1 *108:24 4.79544e-05
5 *583:B1 *583:A1 5.3304e-05
*RES
1 *542:X *583:A1 47.5743 
*END

*D_NET *97 0.000105752
*CONN
*I *547:A1 I *D sky130_fd_sc_hd__o21a_1
*I *543:X O *D sky130_fd_sc_hd__o21a_1
*CAP
1 *547:A1 8.37909e-06
2 *543:X 8.37909e-06
3 *40:6 *547:A1 5.67058e-05
4 *95:12 *547:A1 3.22879e-05
*RES
1 *543:X *547:A1 46.6214 
*END

*D_NET *98 0.00136604
*CONN
*I *556:B_N I *D sky130_fd_sc_hd__and4bb_1
*I *572:A2 I *D sky130_fd_sc_hd__o211a_1
*I *544:X O *D sky130_fd_sc_hd__and2b_1
*CAP
1 *556:B_N 0.000223201
2 *572:A2 0
3 *544:X 0.000137439
4 *98:10 0.00036064
5 *556:B_N *107:55 0.000183733
6 *556:B_N *115:12 6.16531e-05
7 *98:10 *133:24 5.67058e-05
8 *556:C *556:B_N 0.000121699
9 *52:10 *556:B_N 6.07611e-06
10 *52:10 *98:10 6.68793e-05
11 *78:46 *556:B_N 0.000148012
12 *93:12 *556:B_N 0
13 *93:12 *98:10 0
*RES
1 *544:X *98:10 40.5271 
2 *98:10 *572:A2 38 
3 *98:10 *556:B_N 43.7171 
*END

*D_NET *99 0.0110383
*CONN
*I *548:A2 I *D sky130_fd_sc_hd__a21o_1
*I *551:C I *D sky130_fd_sc_hd__nand3_1
*I *563:A I *D sky130_fd_sc_hd__nand2_1
*I *568:B I *D sky130_fd_sc_hd__nand3_1
*I *566:A1 I *D sky130_fd_sc_hd__a21o_1
*I *545:X O *D sky130_fd_sc_hd__and3b_1
*CAP
1 *548:A2 2.9334e-05
2 *551:C 0.000100524
3 *563:A 0
4 *568:B 1.26784e-05
5 *566:A1 0.000109766
6 *545:X 0.000675087
7 *99:69 0.000752491
8 *99:61 0.00213214
9 *99:38 0.00159027
10 *99:16 0.000265749
11 *99:10 0.00022407
12 *99:8 0.000675087
13 *548:A2 *548:B1 5.50106e-05
14 *548:A2 *104:94 5.50106e-05
15 *548:A2 *104:102 1.02561e-05
16 *551:C *104:102 6.89754e-05
17 *99:8 *559:B 8.50956e-05
18 *99:8 *107:55 0.000216721
19 *99:8 *129:53 0
20 *99:61 *509:A 0.000327969
21 *99:61 *104:78 0.000161369
22 *99:61 *104:86 0.000431015
23 *99:61 *104:94 4.87616e-05
24 *99:69 *511:A 4.34745e-05
25 *99:69 *101:10 5.50106e-05
26 *99:69 *104:94 0.000503584
27 *99:69 *114:54 0.000402806
28 *548:A1 *551:C 4.96264e-05
29 *568:C *99:16 0.00042905
30 *568:C *99:38 4.66047e-05
31 *575:A1 *566:A1 9.4713e-05
32 *575:A1 *568:B 1.14154e-05
33 *575:C1 *566:A1 0
34 *595:D *99:61 8.38361e-05
35 *596:D *99:61 0.000127311
36 *597:D *99:61 1.64354e-05
37 *44:10 *99:61 6.07826e-05
38 *56:8 *99:8 0
39 *60:8 *99:8 6.07929e-05
40 *60:49 *99:8 0
41 *60:49 *99:38 6.16531e-05
42 *60:49 *99:61 1.14452e-05
43 *60:55 *99:16 0
44 *60:55 *99:38 9.84794e-05
45 *90:42 *566:A1 0.000222791
46 *90:42 *99:16 0.000453516
47 *90:42 *99:38 0.000172996
48 *91:10 *99:8 0
49 *91:23 *99:8 0
50 *94:25 *551:C 4.6318e-06
*RES
1 *545:X *99:8 49.7657 
2 *99:8 *99:10 15 
3 *99:10 *99:16 7.45714 
4 *99:16 *566:A1 26.0243 
5 *99:16 *568:B 23.4971 
6 *99:10 *99:38 17.9 
7 *99:38 *563:A 38 
8 *99:38 *99:61 40.2714 
9 *99:61 *99:69 28.9511 
10 *99:69 *551:C 40.0818 
11 *99:69 *548:A2 38.9425 
*END

*D_NET *100 0.000310609
*CONN
*I *547:A2 I *D sky130_fd_sc_hd__o21a_1
*I *546:X O *D sky130_fd_sc_hd__o2111a_1
*CAP
1 *547:A2 0
2 *546:X 0.000127802
3 *100:10 0.000127802
4 *100:10 *505:A 5.50049e-05
5 *100:10 *543:A1 0
*RES
1 *546:X *100:10 39.8229 
2 *100:10 *547:A2 38 
*END

*D_NET *101 0.00060912
*CONN
*I *552:A1 I *D sky130_fd_sc_hd__a31oi_1
*I *548:X O *D sky130_fd_sc_hd__a21o_1
*CAP
1 *552:A1 1.39194e-05
2 *548:X 0.000172869
3 *101:10 0.000186789
4 *548:A1 *101:10 2.61617e-05
5 *552:A3 *552:A1 5.67058e-05
6 *53:10 *101:10 1.85961e-05
7 *90:59 *101:10 1.20966e-05
8 *90:69 *101:10 3.54739e-05
9 *94:25 *101:10 2.12347e-06
10 *94:33 *552:A1 2.93747e-05
11 *99:69 *101:10 5.50106e-05
*RES
1 *548:X *101:10 40.8793 
2 *101:10 *552:A1 38.6214 
*END

*D_NET *102 0.00286694
*CONN
*I *607:A I *D sky130_fd_sc_hd__clkbuf_16
*I *606:A I *D sky130_fd_sc_hd__clkbuf_16
*I *605:X O *D sky130_fd_sc_hd__clkbuf_16
*CAP
1 *607:A 2.6864e-05
2 *606:A 0.000697882
3 *605:X 0
4 *102:4 0.000724746
5 *606:A *107:55 0.000123934
6 *606:A *115:14 0.00101307
7 *607:A *107:55 0.00010655
8 *607:A *115:14 0.000173898
*RES
1 *605:X *102:4 23 
2 *102:4 *606:A 39.9857 
3 *102:4 *607:A 25.0507 
*END

*D_NET *103 0.0152081
*CONN
*I *600:CLK I *D sky130_fd_sc_hd__dfxtp_1
*I *591:CLK I *D sky130_fd_sc_hd__dfxtp_1
*I *592:CLK I *D sky130_fd_sc_hd__dfxtp_1
*I *588:CLK I *D sky130_fd_sc_hd__dfxtp_1
*I *586:CLK I *D sky130_fd_sc_hd__dfxtp_1
*I *585:CLK I *D sky130_fd_sc_hd__dfxtp_1
*I *590:CLK I *D sky130_fd_sc_hd__dfxtp_1
*I *589:CLK I *D sky130_fd_sc_hd__dfxtp_1
*I *599:CLK I *D sky130_fd_sc_hd__dfxtp_1
*I *598:CLK I *D sky130_fd_sc_hd__dfxtp_1
*I *515:A I *D sky130_fd_sc_hd__inv_2
*I *587:CLK I *D sky130_fd_sc_hd__dfxtp_1
*I *606:X O *D sky130_fd_sc_hd__clkbuf_16
*CAP
1 *600:CLK 2.07933e-05
2 *591:CLK 0
3 *592:CLK 0
4 *588:CLK 0.000152767
5 *586:CLK 0
6 *585:CLK 0.000343009
7 *590:CLK 0
8 *589:CLK 0
9 *599:CLK 5.29897e-05
10 *598:CLK 0
11 *515:A 0.000351142
12 *587:CLK 0
13 *606:X 0.000196122
14 *103:134 0.000384322
15 *103:92 0.000672126
16 *103:90 0.000823271
17 *103:86 0.000781808
18 *103:82 0.000962157
19 *103:80 0.000842452
20 *103:71 0.000838915
21 *103:60 0.000315903
22 *103:44 0.00081763
23 *103:25 0.00116877
24 *103:23 0.00053291
25 *103:14 0.000717796
26 *103:8 0.000595232
27 *515:A *535:A 1.83564e-05
28 *515:A *536:A 1.2678e-05
29 *515:A *136:116 4.82073e-05
30 *515:A *137:10 1.69532e-05
31 *585:CLK *647:A 0.000333495
32 *585:CLK *112:29 2.82105e-05
33 *585:CLK *130:33 0
34 *585:CLK *131:21 0
35 *588:CLK *531:A 8.1796e-05
36 *588:CLK *531:B 2.93845e-05
37 *588:CLK *650:A 0.000247714
38 *103:14 *120:24 2.30292e-05
39 *103:14 *151:29 0
40 *103:23 *113:18 0.000137859
41 *103:23 *120:24 0.00023292
42 *103:44 *508:A 0
43 *103:44 *536:A 0.000163212
44 *103:44 *636:A 0
45 *103:44 *126:14 0
46 *103:44 *128:20 0
47 *103:44 *148:12 0.000104454
48 *103:80 *532:A1 0.000188927
49 *103:80 *590:D 1.64354e-05
50 *103:80 *136:83 0.000268873
51 *103:86 *119:8 9.58714e-05
52 *103:90 *130:33 0
53 *103:90 *130:54 0
54 *103:92 *113:18 0
55 *103:92 *130:33 0
56 *103:134 *646:A 0
57 *103:134 *136:64 7.8667e-05
58 *103:134 *155:12 3.5664e-05
59 *530:A2 *103:80 0
60 *585:D *585:CLK 0.000146207
61 *591:D *103:134 0.00013185
62 *598:D *103:44 0.000127305
63 *599:D *599:CLK 3.46255e-05
64 *599:D *103:23 8.90284e-05
65 *600:D *600:CLK 1.12349e-05
66 *600:D *103:80 0.000349724
67 *600:D *103:82 0.00011742
68 *32:8 *585:CLK 0.000110922
69 *37:8 *103:71 6.38845e-05
70 *46:8 *515:A 2.50707e-05
71 *46:8 *103:44 5.56306e-05
72 *47:8 *103:80 0.000161622
73 *79:10 *103:14 8.26672e-05
74 *79:19 *103:14 0.000118797
75 *79:19 *103:60 1.58805e-05
76 *79:23 *103:8 9.67842e-05
77 *79:38 *103:80 5.50049e-05
78 *79:49 *103:60 0.000103009
79 *79:49 *103:71 7.45175e-05
80 *80:8 *515:A 0
81 *80:12 *515:A 0
82 *80:18 *515:A 8.91472e-06
83 *80:25 *515:A 0
84 *80:44 *103:44 0
85 *80:62 *103:71 1.14452e-05
86 *80:62 *103:80 4.07902e-05
87 *80:99 *585:CLK 5.59989e-05
88 *80:99 *103:92 4.21594e-06
89 *83:8 *103:14 7.03869e-05
90 *85:10 *103:80 0.000312342
91 *88:10 *103:90 0
*RES
1 *606:X *103:8 41.48 
2 *103:8 *103:14 21.0486 
3 *103:14 *587:CLK 23 
4 *103:14 *103:23 10.1707 
5 *103:23 *103:25 15 
6 *103:25 *515:A 42.7539 
7 *103:25 *103:44 32.0064 
8 *103:44 *598:CLK 23 
9 *103:23 *599:CLK 24.1186 
10 *103:8 *103:60 3.31429 
11 *103:60 *589:CLK 38 
12 *103:60 *103:71 17.9621 
13 *103:71 *590:CLK 23 
14 *103:71 *103:80 17.3171 
15 *103:80 *103:82 2.52714 
16 *103:82 *103:86 7.18786 
17 *103:86 *103:90 20.7793 
18 *103:90 *103:92 5.77929 
19 *103:92 *585:CLK 47.0521 
20 *103:92 *586:CLK 38 
21 *103:90 *588:CLK 42.9093 
22 *103:86 *592:CLK 23 
23 *103:82 *103:134 38.12 
24 *103:134 *591:CLK 23 
25 *103:80 *600:CLK 23.4971 
*END

*D_NET *104 0.0166509
*CONN
*I *596:CLK I *D sky130_fd_sc_hd__dfxtp_1
*I *595:CLK I *D sky130_fd_sc_hd__dfxtp_1
*I *594:CLK I *D sky130_fd_sc_hd__dfxtp_1
*I *604:CLK I *D sky130_fd_sc_hd__dfxtp_1
*I *597:CLK I *D sky130_fd_sc_hd__dfxtp_1
*I *608:A I *D sky130_fd_sc_hd__clkinvlp_4
*I *593:CLK I *D sky130_fd_sc_hd__dfxtp_2
*I *603:CLK I *D sky130_fd_sc_hd__dfxtp_2
*I *602:CLK I *D sky130_fd_sc_hd__dfxtp_1
*I *601:CLK I *D sky130_fd_sc_hd__dfxtp_1
*I *607:X O *D sky130_fd_sc_hd__clkbuf_16
*CAP
1 *596:CLK 0
2 *595:CLK 0
3 *594:CLK 0
4 *604:CLK 0
5 *597:CLK 6.63093e-05
6 *608:A 0
7 *593:CLK 0
8 *603:CLK 2.34823e-05
9 *602:CLK 2.34823e-05
10 *601:CLK 0.000345113
11 *607:X 0.000284309
12 *104:102 0.000352571
13 *104:94 0.00101131
14 *104:86 0.00113506
15 *104:78 0.000682757
16 *104:69 0.000814505
17 *104:49 0.000353365
18 *104:34 0.00100168
19 *104:25 0.00078245
20 *104:14 0.000983678
21 *104:10 0.000660283
22 *104:8 0.000981926
23 *597:CLK *509:A 8.51461e-05
24 *601:CLK *114:32 0.000184815
25 *104:8 *115:14 0.00022296
26 *104:14 *105:10 0
27 *104:25 *105:10 0.000361027
28 *104:25 *114:32 0.000146233
29 *104:34 *106:10 0.000532323
30 *104:34 *107:6 0.000532323
31 *104:34 *114:32 3.75333e-05
32 *104:49 *107:6 0.000617571
33 *104:49 *112:10 0
34 *104:49 *112:29 0
35 *104:69 *564:B1 4.96264e-05
36 *104:69 *643:A 3.3746e-05
37 *104:78 *509:A 4.2573e-05
38 *104:94 *511:A 5.50106e-05
39 *104:94 *548:B1 7.60586e-05
40 *104:94 *114:54 0.000401106
41 *104:102 *109:12 5.41385e-05
42 *548:A2 *104:94 5.50106e-05
43 *548:A2 *104:102 1.02561e-05
44 *551:C *104:102 6.89754e-05
45 *595:D *104:94 8.38361e-05
46 *596:D *104:86 0.000127311
47 *601:D *601:CLK 1.64354e-05
48 *602:D *104:34 8.90341e-05
49 *603:D *104:49 8.90341e-05
50 *41:10 *104:102 0.000111852
51 *44:10 *104:69 0
52 *56:8 *104:10 5.15924e-05
53 *56:8 *104:14 4.48568e-05
54 *56:8 *104:69 8.73148e-05
55 *89:37 *104:69 0
56 *89:73 *104:34 0.00143668
57 *90:42 *104:69 6.64545e-05
58 *90:59 *104:69 6.65598e-06
59 *90:69 *104:102 4.06849e-05
60 *92:8 *104:10 0
61 *92:8 *104:14 0
62 *92:8 *104:69 0
63 *92:22 *104:69 0.000185755
64 *94:25 *104:102 0
65 *99:61 *104:78 0.000161369
66 *99:61 *104:86 0.000431015
67 *99:61 *104:94 4.87616e-05
68 *99:69 *104:94 0.000503584
*RES
1 *607:X *104:8 42.4329 
2 *104:8 *104:10 2.61 
3 *104:10 *104:14 22.54 
4 *104:14 *601:CLK 30.3121 
5 *104:14 *104:25 5.38571 
6 *104:25 *602:CLK 23.4971 
7 *104:25 *104:34 20.6314 
8 *104:34 *603:CLK 23.4971 
9 *104:34 *104:49 39.0729 
10 *104:49 *593:CLK 23 
11 *104:10 *608:A 38 
12 *104:8 *104:69 25.4193 
13 *104:69 *597:CLK 24.5743 
14 *104:69 *104:78 4.90929 
15 *104:78 *104:86 12.2421 
16 *104:86 *104:94 17.4829 
17 *104:94 *104:102 36.8771 
18 *104:102 *604:CLK 23 
19 *104:94 *594:CLK 23 
20 *104:86 *595:CLK 23 
21 *104:78 *596:CLK 23 
*END

*D_NET *105 0.0082785
*CONN
*I *613:A I *D sky130_fd_sc_hd__buf_2
*I *505:A I *D sky130_fd_sc_hd__inv_2
*I *549:C I *D sky130_fd_sc_hd__and4bb_1
*I *578:A2 I *D sky130_fd_sc_hd__a21o_1
*I *601:Q O *D sky130_fd_sc_hd__dfxtp_1
*CAP
1 *613:A 0.000164516
2 *505:A 0.000767327
3 *549:C 5.02871e-05
4 *578:A2 0
5 *601:Q 0.000428883
6 *105:27 0.00126135
7 *105:20 0.000344476
8 *105:14 0.00110839
9 *105:10 0.00091358
10 *505:A *504:A 1.5769e-05
11 *505:A *546:C1 9.70909e-05
12 *505:A *134:14 4.38084e-05
13 *549:C *134:14 5.50049e-05
14 *613:A *135:8 6.68793e-05
15 *105:10 *578:A1 0
16 *105:14 *133:24 0.000211113
17 *105:20 *578:A1 0.000127569
18 *105:20 *578:B1 0.000194449
19 *105:20 *129:84 6.78125e-05
20 *105:20 *134:20 6.31807e-05
21 *105:27 *133:24 4.5051e-05
22 *105:27 *134:14 9.51143e-05
23 *105:27 *134:20 0.0002263
24 *546:B1 *505:A 0.00010018
25 *49:10 *105:10 2.5415e-05
26 *76:8 *505:A 0.000272905
27 *77:6 *505:A 0.00050208
28 *89:37 *613:A 0.000262341
29 *89:37 *105:10 0.000187303
30 *89:73 *105:20 0.000164291
31 *92:8 *613:A 0
32 *100:10 *505:A 5.50049e-05
33 *104:14 *105:10 0
34 *104:25 *105:10 0.000361027
*RES
1 *601:Q *105:10 45.975 
2 *105:10 *105:14 19.4329 
3 *105:14 *105:20 37.8921 
4 *105:20 *578:A2 23 
5 *105:14 *105:27 6.815 
6 *105:27 *549:C 24.4707 
7 *105:27 *505:A 40.0271 
8 *105:10 *613:A 41.6664 
*END

*D_NET *106 0.00337894
*CONN
*I *611:A I *D sky130_fd_sc_hd__buf_2
*I *612:A I *D sky130_fd_sc_hd__buf_1
*I *602:Q O *D sky130_fd_sc_hd__dfxtp_1
*CAP
1 *611:A 0.000355192
2 *612:A 0
3 *602:Q 0.000694259
4 *106:10 0.00104945
5 *611:A *107:21 0
6 *611:A *107:34 0
7 *611:A *108:24 0.000183425
8 *611:A *109:22 0.000243587
9 *106:10 *107:10 0
10 *106:10 *107:21 0
11 *106:10 *108:24 2.44107e-05
12 *106:10 *114:30 0
13 *580:A *106:10 4.31565e-05
14 *58:8 *611:A 0.000193379
15 *91:55 *611:A 5.97612e-05
16 *104:34 *106:10 0.000532323
*RES
1 *602:Q *106:10 48.9371 
2 *106:10 *612:A 38 
3 *106:10 *611:A 46.2443 
*END

*D_NET *107 0.0161465
*CONN
*I *556:D I *D sky130_fd_sc_hd__and4bb_1
*I *567:B I *D sky130_fd_sc_hd__or4_1
*I *518:A I *D sky130_fd_sc_hd__or4b_4
*I *517:A I *D sky130_fd_sc_hd__nor4b_1
*I *570:A2 I *D sky130_fd_sc_hd__o41a_1
*I *559:B I *D sky130_fd_sc_hd__nor2_2
*I *540:B I *D sky130_fd_sc_hd__and2b_1
*I *504:A I *D sky130_fd_sc_hd__inv_2
*I *541:B I *D sky130_fd_sc_hd__nand4_1
*I *603:Q O *D sky130_fd_sc_hd__dfxtp_2
*CAP
1 *556:D 0
2 *567:B 0
3 *518:A 1.00761e-05
4 *517:A 4.76269e-05
5 *570:A2 9.63283e-05
6 *559:B 5.23393e-05
7 *540:B 0.000445305
8 *504:A 4.61223e-05
9 *541:B 0.000154031
10 *603:Q 0.000779285
11 *107:83 0.000455503
12 *107:70 0.000723232
13 *107:68 0.000499653
14 *107:55 0.00196902
15 *107:49 0.00196472
16 *107:34 0.000998007
17 *107:21 0.000570838
18 *107:10 0.00052817
19 *107:6 0.000862821
20 *504:A *546:C1 5.50106e-05
21 *504:A *134:8 0
22 *504:A *134:14 0
23 *517:A *517:B 0.000270682
24 *517:A *517:D_N 0.000230604
25 *518:A *517:B 5.50106e-05
26 *518:A *517:D_N 4.34745e-05
27 *540:B *132:38 0.000360843
28 *540:B *133:119 0.000181125
29 *541:B *541:D 4.66047e-05
30 *107:21 *133:119 0
31 *107:34 *132:46 0.000192087
32 *107:34 *133:119 0
33 *107:49 *108:24 0.000262858
34 *107:49 *109:22 1.4471e-05
35 *107:49 *114:24 0
36 *107:49 *132:46 6.16531e-05
37 *107:49 *133:106 8.48502e-06
38 *107:55 *109:22 7.44161e-06
39 *107:55 *115:14 0.000225467
40 *107:55 *133:106 3.7122e-06
41 *107:83 *609:A 0
42 *107:83 *111:8 0
43 *505:A *504:A 1.5769e-05
44 *556:B_N *107:55 0.000183733
45 *556:C *107:55 7.73854e-05
46 *573:A3 *570:A2 0.000141954
47 *581:C *541:B 0.000143655
48 *606:A *107:55 0.000123934
49 *607:A *107:55 0.00010655
50 *611:A *107:21 0
51 *611:A *107:34 0
52 *11:9 *107:83 0.00019482
53 *60:8 *559:B 5.79438e-05
54 *60:8 *107:55 0.000208809
55 *66:10 *107:70 5.3304e-05
56 *66:10 *107:83 3.47781e-05
57 *70:12 *107:68 0.00038606
58 *70:12 *107:70 0.000216781
59 *74:10 *107:21 2.7538e-05
60 *76:8 *504:A 6.17437e-06
61 *78:46 *107:55 0.000378217
62 *80:8 *517:A 2.18506e-05
63 *89:79 *107:21 0
64 *91:23 *559:B 0
65 *91:42 *559:B 0
66 *91:55 *107:34 6.68793e-05
67 *91:55 *107:49 2.60152e-05
68 *99:8 *559:B 8.50956e-05
69 *99:8 *107:55 0.000216721
70 *104:34 *107:6 0.000532323
71 *104:49 *107:6 0.000617571
72 *106:10 *107:10 0
73 *106:10 *107:21 0
*RES
1 *603:Q *107:6 36.0086 
2 *107:6 *107:10 16.2014 
3 *107:10 *541:B 40.5271 
4 *107:10 *107:21 4.37071 
5 *107:21 *504:A 39.1186 
6 *107:21 *107:34 4.72286 
7 *107:34 *540:B 47.1971 
8 *107:34 *107:49 20.0336 
9 *107:49 *107:55 41.4521 
10 *107:55 *559:B 39.2014 
11 *107:55 *107:68 19.4329 
12 *107:68 *107:70 3.48 
13 *107:70 *570:A2 24.5743 
14 *107:70 *107:83 36.4836 
15 *107:83 *517:A 26.0036 
16 *107:83 *518:A 23.6214 
17 *107:68 *567:B 23 
18 *107:49 *556:D 23 
*END

*D_NET *108 0.00638846
*CONN
*I *625:A I *D sky130_fd_sc_hd__dlygate4sd3_1
*I *610:A I *D sky130_fd_sc_hd__buf_2
*I *549:A_N I *D sky130_fd_sc_hd__and4bb_1
*I *604:Q O *D sky130_fd_sc_hd__dfxtp_1
*CAP
1 *625:A 0.00018459
2 *610:A 0
3 *549:A_N 0
4 *604:Q 0
5 *108:24 0.00102858
6 *108:12 0.0012005
7 *108:4 0.000356508
8 *625:A *109:12 0.000128964
9 *108:12 *542:A 9.91798e-05
10 *108:12 *113:10 6.68793e-05
11 *108:12 *146:8 8.62876e-05
12 *108:24 *542:A 0.000124185
13 *108:24 *132:8 0.000254678
14 *108:24 *132:38 0.000958467
15 *108:24 *133:10 6.48142e-05
16 *108:24 *133:14 1.88972e-05
17 *108:24 *133:106 0.00011501
18 *108:24 *133:119 4.34876e-05
19 *550:B *108:24 8.62783e-05
20 *580:A *108:24 3.39102e-05
21 *583:A1 *108:24 4.79544e-05
22 *583:B1 *108:24 5.50106e-05
23 *611:A *108:24 0.000183425
24 *53:10 *108:24 0.00052972
25 *58:8 *108:24 3.70094e-05
26 *76:19 *108:24 0.000236721
27 *76:32 *108:24 6.16531e-05
28 *94:8 *108:24 9.84794e-05
29 *106:10 *108:24 2.44107e-05
30 *107:49 *108:24 0.000262858
*RES
1 *604:Q *108:4 23 
2 *108:4 *108:12 33.9564 
3 *108:12 *108:24 43.9586 
4 *108:24 *549:A_N 38 
5 *108:12 *610:A 23 
6 *108:4 *625:A 27.3293 
*END

*D_NET *109 0.0117493
*CONN
*I *514:A I *D sky130_fd_sc_hd__inv_2
*I *556:A_N I *D sky130_fd_sc_hd__and4bb_1
*I *562:A I *D sky130_fd_sc_hd__or3b_1
*I *627:X O *D sky130_fd_sc_hd__buf_1
*CAP
1 *514:A 0
2 *556:A_N 0
3 *562:A 0
4 *627:X 0.000371307
5 *109:48 0.000109748
6 *109:32 0.000350634
7 *109:22 0.00122746
8 *109:12 0.00414285
9 *109:10 0.00315628
10 *109:8 0.000371307
11 *109:8 *631:A 0
12 *109:8 *112:40 0
13 *109:8 *121:10 2.5415e-05
14 *109:22 *114:24 0
15 *109:22 *133:106 0.000180218
16 *109:32 *115:12 0
17 *109:48 *114:24 0
18 *550:B *109:22 0.000180224
19 *555:B *109:32 0.000161806
20 *556:C *109:22 0.000224605
21 *557:A2 *109:32 2.18409e-05
22 *560:A2 *109:32 0.000228903
23 *604:D *109:12 1.52322e-05
24 *611:A *109:22 0.000243587
25 *625:A *109:12 0.000128964
26 *42:8 *109:22 0
27 *53:10 *109:48 0
28 *55:10 *109:32 0.000101657
29 *58:8 *109:22 2.70366e-05
30 *78:12 *109:48 8.62876e-05
31 *78:46 *109:32 6.16439e-05
32 *89:58 *109:32 0.000151096
33 *90:69 *109:12 4.35306e-05
34 *91:55 *109:22 6.16531e-05
35 *104:102 *109:12 5.41385e-05
36 *107:49 *109:22 1.4471e-05
37 *107:55 *109:22 7.44161e-06
*RES
1 *627:X *109:8 44.8357 
2 *109:8 *109:10 15 
3 *109:10 *109:12 42.0707 
4 *109:12 *109:22 45.6186 
5 *109:22 *109:32 38.845 
6 *109:32 *562:A 23 
7 *109:22 *556:A_N 23 
8 *109:12 *109:48 32.2579 
9 *109:48 *514:A 23 
*END

*D_NET *110 0.00120346
*CONN
*I *629:A I *D sky130_fd_sc_hd__buf_2
*I *533:A I *D sky130_fd_sc_hd__or2_1
*I *592:Q O *D sky130_fd_sc_hd__dfxtp_1
*CAP
1 *629:A 0.000205502
2 *533:A 0
3 *592:Q 0.000327987
4 *110:10 0.000533489
5 *9:10 *629:A 0
6 *39:8 *629:A 2.55642e-05
7 *39:8 *110:10 0.000110922
*RES
1 *592:Q *110:10 42.5571 
2 *110:10 *533:A 38 
3 *110:10 *629:A 41.6664 
*END

*D_NET *111 0.0168607
*CONN
*I *609:A I *D sky130_fd_sc_hd__clkbuf_2
*I *630:A I *D sky130_fd_sc_hd__buf_2
*I *546:D1 I *D sky130_fd_sc_hd__o2111a_1
*I *584:Q O *D sky130_fd_sc_hd__dfxtp_1
*CAP
1 *609:A 0.000256741
2 *630:A 0
3 *546:D1 9.46369e-05
4 *584:Q 0.000293494
5 *111:31 0.00239531
6 *111:12 0.00394813
7 *111:8 0.00200842
8 *546:D1 *543:A1 0
9 *546:D1 *133:119 0
10 *609:A *129:10 3.3577e-05
11 *111:8 *516:A_N 0
12 *111:8 *129:10 0
13 *111:12 *112:29 0.00230762
14 *111:12 *113:18 0.00416128
15 *111:31 *112:29 0.000203569
16 *111:31 *113:18 0.00115789
17 *546:A2 *546:D1 0
18 *573:B1 *609:A 0
19 *11:9 *111:8 0
20 *89:16 *111:8 0
21 *107:83 *609:A 0
22 *107:83 *111:8 0
*RES
1 *584:Q *111:8 41.8425 
2 *111:8 *111:12 15.9557 
3 *111:12 *546:D1 47.3775 
4 *111:12 *111:31 35.0732 
5 *111:31 *630:A 23 
6 *111:8 *609:A 42.3811 
*END

*D_NET *112 0.023083
*CONN
*I *631:A I *D sky130_fd_sc_hd__buf_2
*I *513:A I *D sky130_fd_sc_hd__inv_2
*I *520:A1 I *D sky130_fd_sc_hd__o211a_1
*I *543:B1 I *D sky130_fd_sc_hd__o21a_1
*I *593:Q O *D sky130_fd_sc_hd__dfxtp_2
*CAP
1 *631:A 0.000172475
2 *513:A 0.000119361
3 *520:A1 0
4 *543:B1 0
5 *593:Q 0
6 *112:40 0.00122565
7 *112:38 0.00264972
8 *112:29 0.00537877
9 *112:10 0.00607502
10 *112:4 0.00241216
11 *112:29 *543:A1 2.26406e-05
12 *112:29 *113:18 0.00128951
13 *112:29 *136:103 0.000135504
14 *112:29 *136:116 0.0001618
15 *585:CLK *112:29 2.82105e-05
16 *40:6 *112:10 0.000298606
17 *79:6 *112:29 0.000156142
18 *80:18 *112:29 0.0001868
19 *80:99 *112:29 5.04995e-05
20 *81:8 *112:29 0.000106693
21 *89:29 *112:29 0.000102224
22 *104:49 *112:10 0
23 *104:49 *112:29 0
24 *109:8 *631:A 0
25 *109:8 *112:40 0
26 *111:12 *112:29 0.00230762
27 *111:31 *112:29 0.000203569
*RES
1 *593:Q *112:4 23 
2 *112:4 *112:10 25.0464 
3 *112:10 *543:B1 38 
4 *112:10 *112:29 48.2019 
5 *112:29 *520:A1 23 
6 *112:4 *112:38 38.0136 
7 *112:38 *112:40 17.7521 
8 *112:40 *513:A 40.0507 
9 *112:40 *631:A 41.3143 
*END

*D_NET *113 0.0206299
*CONN
*I *632:A I *D sky130_fd_sc_hd__buf_2
*I *512:A I *D sky130_fd_sc_hd__inv_2
*I *522:A1 I *D sky130_fd_sc_hd__o211a_1
*I *594:Q O *D sky130_fd_sc_hd__dfxtp_1
*CAP
1 *632:A 0
2 *512:A 0
3 *522:A1 0
4 *594:Q 0
5 *113:40 0.000361559
6 *113:27 0.000441438
7 *113:18 0.00522275
8 *113:10 0.00599181
9 *113:4 0.000848941
10 *113:18 *120:24 0.000244803
11 *113:18 *130:33 4.73716e-05
12 *113:27 *548:B1 0.000104183
13 *113:40 *548:B1 5.67058e-05
14 *113:40 *122:31 0
15 *75:10 *113:10 0
16 *80:99 *113:18 2.31116e-05
17 *91:42 *113:18 0.00047386
18 *103:23 *113:18 0.000137859
19 *103:92 *113:18 0
20 *108:12 *113:10 6.68793e-05
21 *111:12 *113:18 0.00416128
22 *111:31 *113:18 0.00115789
23 *112:29 *113:18 0.00128951
*RES
1 *594:Q *113:4 23 
2 *113:4 *113:10 36.7025 
3 *113:10 *113:18 40.8167 
4 *113:18 *522:A1 23 
5 *113:4 *113:27 1.94714 
6 *113:27 *512:A 23 
7 *113:27 *113:40 36.7943 
8 *113:40 *632:A 23 
*END

*D_NET *114 0.0141367
*CONN
*I *511:A I *D sky130_fd_sc_hd__inv_2
*I *633:A I *D sky130_fd_sc_hd__buf_2
*I *553:B1 I *D sky130_fd_sc_hd__o41a_1
*I *524:A1 I *D sky130_fd_sc_hd__o211a_1
*I *595:Q O *D sky130_fd_sc_hd__dfxtp_1
*CAP
1 *511:A 1.00761e-05
2 *633:A 0
3 *553:B1 0
4 *524:A1 0
5 *595:Q 0
6 *114:60 0.000149769
7 *114:54 0.00027215
8 *114:38 0.000201425
9 *114:32 0.00373094
10 *114:30 0.00414092
11 *114:24 0.00148131
12 *114:6 0.000982208
13 *114:24 *132:46 0.000267167
14 *114:24 *132:54 0.000205341
15 *114:24 *133:119 0.000192087
16 *114:30 *549:D 6.82521e-05
17 *114:30 *129:116 2.2119e-05
18 *114:30 *133:24 7.56417e-05
19 *114:32 *576:B 1.73399e-05
20 *114:60 *123:8 8.76088e-05
21 *572:A1 *114:24 0.000138403
22 *580:A *114:30 5.08615e-05
23 *584:D *114:32 5.10495e-05
24 *601:CLK *114:32 0.000184815
25 *601:D *114:32 7.10068e-06
26 *602:D *114:32 3.68467e-05
27 *52:10 *114:30 0
28 *76:19 *114:30 9.96021e-06
29 *78:12 *114:24 0
30 *78:29 *114:24 6.51763e-05
31 *78:29 *114:30 0
32 *78:46 *114:30 0
33 *83:8 *114:38 4.21594e-06
34 *89:16 *114:32 0.000145065
35 *89:73 *114:32 0.000255756
36 *91:55 *114:24 0.000196945
37 *99:69 *511:A 4.34745e-05
38 *99:69 *114:54 0.000402806
39 *104:25 *114:32 0.000146233
40 *104:34 *114:32 3.75333e-05
41 *104:94 *511:A 5.50106e-05
42 *104:94 *114:54 0.000401106
43 *106:10 *114:30 0
44 *107:49 *114:24 0
45 *109:22 *114:24 0
46 *109:48 *114:24 0
*RES
1 *595:Q *114:6 38 
2 *114:6 *114:24 33.8914 
3 *114:24 *114:30 39.3007 
4 *114:30 *114:32 50.6464 
5 *114:32 *114:38 33.6664 
6 *114:38 *524:A1 23 
7 *114:24 *553:B1 23 
8 *114:6 *114:54 20.2821 
9 *114:54 *114:60 33.3143 
10 *114:60 *633:A 23 
11 *114:54 *511:A 23.6214 
*END

*D_NET *115 0.0119405
*CONN
*I *634:A I *D sky130_fd_sc_hd__buf_2
*I *510:A I *D sky130_fd_sc_hd__inv_2
*I *526:A1 I *D sky130_fd_sc_hd__o211a_1
*I *596:Q O *D sky130_fd_sc_hd__dfxtp_1
*CAP
1 *634:A 0.000303481
2 *510:A 4.14384e-05
3 *526:A1 0.00158187
4 *596:Q 0
5 *115:20 0.00166753
6 *115:14 0.00181838
7 *115:12 0.00219782
8 *115:8 0.00056465
9 *115:6 0.000361589
10 *526:A1 *523:A 4.05196e-05
11 *526:A1 *118:14 2.93845e-05
12 *634:A *642:A 9.98891e-05
13 *115:8 *558:B1 4.6318e-06
14 *115:8 *642:A 2.49836e-05
15 *115:12 *558:B1 7.70909e-05
16 *115:20 *118:27 0.000139647
17 *526:A2 *526:A1 1.12349e-05
18 *526:B1 *526:A1 0.000305746
19 *556:B_N *115:12 6.16531e-05
20 *560:A2 *115:12 6.16531e-05
21 *606:A *115:14 0.00101307
22 *607:A *115:14 0.000173898
23 *42:8 *115:12 0
24 *55:10 *115:12 0
25 *78:46 *115:14 0.000658443
26 *80:81 *526:A1 3.70553e-06
27 *80:91 *526:A1 4.46742e-06
28 *93:12 *115:12 0
29 *94:44 *115:12 0.000245269
30 *104:8 *115:14 0.00022296
31 *107:55 *115:14 0.000225467
32 *109:32 *115:12 0
*RES
1 *596:Q *115:6 38 
2 *115:6 *115:8 0.849286 
3 *115:8 *115:12 23.5964 
4 *115:12 *115:14 40.6414 
5 *115:14 *115:20 31.9057 
6 *115:20 *526:A1 44.8329 
7 *115:8 *510:A 38.6214 
8 *115:6 *634:A 44.09 
*END

*D_NET *116 0.00257552
*CONN
*I *509:A I *D sky130_fd_sc_hd__inv_2
*I *635:A I *D sky130_fd_sc_hd__buf_2
*I *616:A I *D sky130_fd_sc_hd__dlygate4sd3_1
*I *597:Q O *D sky130_fd_sc_hd__dfxtp_1
*CAP
1 *509:A 0.000442398
2 *635:A 0
3 *616:A 0.000287853
4 *597:Q 2.07655e-05
5 *116:21 0.000158141
6 *116:8 0.000505748
7 *116:6 0.000522917
8 *616:A *128:20 5.67058e-05
9 *574:A2 *616:A 9.84851e-05
10 *597:CLK *509:A 8.51461e-05
11 *597:D *509:A 1.64354e-05
12 *71:10 *616:A 1.03836e-05
13 *99:61 *509:A 0.000327969
14 *104:78 *509:A 4.2573e-05
*RES
1 *597:Q *116:6 23.4971 
2 *116:6 *116:8 1.09786 
3 *116:8 *616:A 28.8621 
4 *116:8 *116:21 32.9621 
5 *116:21 *635:A 23 
6 *116:6 *509:A 34.1236 
*END

*D_NET *117 0.00214148
*CONN
*I *615:A I *D sky130_fd_sc_hd__dlygate4sd3_1
*I *636:A I *D sky130_fd_sc_hd__buf_2
*I *508:A I *D sky130_fd_sc_hd__inv_2
*I *598:Q O *D sky130_fd_sc_hd__dfxtp_1
*CAP
1 *615:A 7.12126e-05
2 *636:A 0.000386716
3 *508:A 0.000307453
4 *598:Q 0
5 *117:6 0.000694169
6 *117:4 7.12126e-05
7 *615:A *148:12 0.000165341
8 *36:10 *508:A 0
9 *36:10 *636:A 0
10 *80:44 *508:A 0.000445374
11 *86:10 *636:A 0
12 *103:44 *508:A 0
13 *103:44 *636:A 0
*RES
1 *598:Q *117:4 23 
2 *117:4 *117:6 15 
3 *117:6 *508:A 44.815 
4 *117:6 *636:A 43.5929 
5 *117:4 *615:A 24.9471 
*END

*D_NET *118 0.00792676
*CONN
*I *507:A I *D sky130_fd_sc_hd__inv_2
*I *637:A I *D sky130_fd_sc_hd__buf_2
*I *532:A1 I *D sky130_fd_sc_hd__o211a_1
*I *570:B1 I *D sky130_fd_sc_hd__o41a_1
*I *599:Q O *D sky130_fd_sc_hd__dfxtp_1
*CAP
1 *507:A 0
2 *637:A 0.000214332
3 *532:A1 0.00012978
4 *570:B1 0
5 *599:Q 0.000125837
6 *118:37 0.000461174
7 *118:33 0.00053296
8 *118:27 0.00139083
9 *118:14 0.000634962
10 *118:8 0.00173573
11 *532:A1 *136:64 0
12 *637:A *652:A 0.000100061
13 *118:27 *589:D 0.000169878
14 *118:27 *128:12 8.41391e-05
15 *118:33 *136:64 2.02872e-05
16 *118:33 *153:21 0
17 *118:33 *154:8 0.000240426
18 *118:37 *136:64 0.000269545
19 *526:A1 *118:14 2.93845e-05
20 *570:A4 *118:14 1.14154e-05
21 *573:A1 *118:14 9.45591e-05
22 *573:A3 *118:14 0.000274078
23 *573:B1 *118:14 5.50106e-05
24 *600:D *532:A1 0.000190627
25 *38:8 *532:A1 0.000109343
26 *70:12 *118:14 0
27 *79:10 *118:8 0
28 *79:19 *118:8 0
29 *79:19 *118:27 0
30 *79:38 *118:33 0
31 *79:49 *118:27 0
32 *80:75 *532:A1 0.000188926
33 *80:75 *637:A 3.70187e-05
34 *80:75 *118:33 5.3304e-05
35 *80:75 *118:37 0.00044458
36 *85:10 *118:33 0
37 *103:80 *532:A1 0.000188927
38 *115:20 *118:27 0.000139647
*RES
1 *599:Q *118:8 40.2579 
2 *118:8 *118:14 28.0293 
3 *118:14 *570:B1 23 
4 *118:8 *118:27 44.8729 
5 *118:27 *118:33 22.105 
6 *118:33 *118:37 20.3857 
7 *118:37 *532:A1 42.6607 
8 *118:37 *637:A 42.4121 
9 *118:33 *507:A 23 
*END

*D_NET *119 0.00284654
*CONN
*I *638:A I *D sky130_fd_sc_hd__buf_2
*I *506:A I *D sky130_fd_sc_hd__inv_2
*I *620:A I *D sky130_fd_sc_hd__dlygate4sd3_1
*I *600:Q O *D sky130_fd_sc_hd__dfxtp_1
*CAP
1 *638:A 0
2 *506:A 2.95011e-05
3 *620:A 0.000107958
4 *600:Q 8.0784e-05
5 *119:36 0.000505656
6 *119:19 0.000603656
7 *119:8 0.000257241
8 *506:A *653:A 5.50106e-05
9 *620:A *128:10 0.000111138
10 *620:A *130:54 0.000274543
11 *620:A *155:12 0
12 *119:19 *646:A 2.70366e-05
13 *119:19 *128:10 4.08641e-05
14 *119:19 *130:54 0.000101708
15 *119:36 *646:A 0.000108672
16 *119:36 *652:A 0.000252161
17 *8:14 *119:36 9.45591e-05
18 *10:10 *119:36 0.00010018
19 *103:86 *119:8 9.58714e-05
*RES
1 *600:Q *119:8 39.0979 
2 *119:8 *620:A 41.6664 
3 *119:8 *119:19 1.90571 
4 *119:19 *506:A 38.6214 
5 *119:19 *119:36 27.18 
6 *119:36 *638:A 23 
*END

*D_NET *120 0.00967584
*CONN
*I *614:A I *D sky130_fd_sc_hd__buf_2
*I *536:A I *D sky130_fd_sc_hd__nand2_2
*I *628:X O *D sky130_fd_sc_hd__buf_1
*CAP
1 *614:A 0
2 *536:A 0.000285726
3 *628:X 0.00126987
4 *120:24 0.00207155
5 *120:20 0.00191123
6 *120:14 0.000465922
7 *120:6 0.00161038
8 *536:A *128:12 1.59094e-05
9 *120:14 *130:12 5.79559e-05
10 *120:14 *130:18 2.14535e-05
11 *120:20 *130:12 4.01511e-05
12 *120:24 *136:14 5.99365e-05
13 *120:24 *151:12 6.10027e-05
14 *120:24 *151:29 2.05898e-05
15 *515:A *536:A 1.2678e-05
16 *536:B *536:A 5.3304e-05
17 *587:D *120:24 0.000105393
18 *599:D *120:24 8.37132e-05
19 *46:8 *536:A 0.000168211
20 *80:25 *536:A 0.000646703
21 *80:44 *536:A 5.01986e-05
22 *103:14 *120:24 2.30292e-05
23 *103:23 *120:24 0.00023292
24 *103:44 *536:A 0.000163212
25 *113:18 *120:24 0.000244803
*RES
1 *628:X *120:6 39.82 
2 *120:6 *120:14 35.8207 
3 *120:14 *120:20 32.2579 
4 *120:20 *120:24 40.8721 
5 *120:24 *536:A 47.9221 
6 *120:14 *614:A 23 
*END

*D_NET *121 0.000820475
*CONN
*I *639:A I *D sky130_fd_sc_hd__buf_2
*I *513:Y O *D sky130_fd_sc_hd__inv_2
*CAP
1 *639:A 0
2 *513:Y 0.000392258
3 *121:10 0.000392258
4 *627:A *121:10 1.05441e-05
5 *109:8 *121:10 2.5415e-05
*RES
1 *513:Y *121:10 43.7379 
2 *121:10 *639:A 38 
*END

*D_NET *122 0.00346888
*CONN
*I *640:A I *D sky130_fd_sc_hd__buf_2
*I *548:B1 I *D sky130_fd_sc_hd__a21o_1
*I *512:Y O *D sky130_fd_sc_hd__inv_2
*CAP
1 *640:A 0
2 *548:B1 0.000576813
3 *512:Y 0
4 *122:31 0.000918649
5 *122:4 0.00149546
6 *548:A1 *548:B1 9.67842e-05
7 *548:A2 *548:B1 5.50106e-05
8 *594:D *548:B1 8.38361e-05
9 *23:8 *122:31 5.37348e-06
10 *104:94 *548:B1 7.60586e-05
11 *113:27 *548:B1 0.000104183
12 *113:40 *548:B1 5.67058e-05
13 *113:40 *122:31 0
*RES
1 *512:Y *122:4 23 
2 *122:4 *548:B1 35.4079 
3 *122:4 *122:31 46.5921 
4 *122:31 *640:A 23 
*END

*D_NET *123 0.000975915
*CONN
*I *641:A I *D sky130_fd_sc_hd__buf_2
*I *511:Y O *D sky130_fd_sc_hd__inv_2
*CAP
1 *641:A 0.000344825
2 *511:Y 9.24742e-05
3 *123:8 0.000437299
4 *16:8 *641:A 6.17437e-06
5 *24:8 *641:A 7.53384e-06
6 *114:60 *123:8 8.76088e-05
*RES
1 *511:Y *123:8 40.2579 
2 *123:8 *641:A 44.3386 
*END

*D_NET *124 0.00169039
*CONN
*I *642:A I *D sky130_fd_sc_hd__buf_2
*I *558:B1 I *D sky130_fd_sc_hd__a21oi_1
*I *510:Y O *D sky130_fd_sc_hd__inv_2
*CAP
1 *642:A 0.000337114
2 *558:B1 0.00026413
3 *510:Y 0
4 *124:6 0.000601244
5 *558:A1 *558:B1 0.000141954
6 *634:A *642:A 9.98891e-05
7 *42:8 *558:B1 0
8 *94:33 *558:B1 0.000139352
9 *115:8 *558:B1 4.6318e-06
10 *115:8 *642:A 2.49836e-05
11 *115:12 *558:B1 7.70909e-05
*RES
1 *510:Y *124:6 38 
2 *124:6 *558:B1 43.2614 
3 *124:6 *642:A 44.7943 
*END

*D_NET *125 0.00148326
*CONN
*I *643:A I *D sky130_fd_sc_hd__buf_2
*I *564:B1 I *D sky130_fd_sc_hd__a21o_1
*I *509:Y O *D sky130_fd_sc_hd__inv_2
*CAP
1 *643:A 0.000308561
2 *564:B1 0.000214212
3 *509:Y 0
4 *125:6 0.000522774
5 *565:A1 *564:B1 2.64616e-05
6 *565:A2 *564:B1 0.000185428
7 *565:A3 *564:B1 5.67058e-05
8 *43:8 *564:B1 0
9 *43:8 *643:A 0
10 *44:10 *564:B1 8.48502e-06
11 *92:22 *564:B1 7.72557e-05
12 *104:69 *564:B1 4.96264e-05
13 *104:69 *643:A 3.3746e-05
*RES
1 *509:Y *125:6 38 
2 *125:6 *564:B1 43.0543 
3 *125:6 *643:A 43.5929 
*END

*D_NET *126 0.00198955
*CONN
*I *566:B1 I *D sky130_fd_sc_hd__a21o_1
*I *644:A I *D sky130_fd_sc_hd__buf_2
*I *508:Y O *D sky130_fd_sc_hd__inv_2
*CAP
1 *566:B1 0
2 *644:A 0
3 *508:Y 0.000146732
4 *126:27 0.000293205
5 *126:14 0.000308283
6 *126:6 0.00074822
7 *126:14 *128:20 0.000133316
8 *574:A2 *126:27 1.4471e-05
9 *575:A1 *126:27 0.000265466
10 *575:A2 *126:6 5.41385e-05
11 *47:8 *126:6 2.03764e-06
12 *60:23 *126:27 4.21594e-06
13 *71:10 *126:27 0
14 *80:44 *126:6 1.94693e-05
15 *103:44 *126:14 0
*RES
1 *508:Y *126:6 25.0507 
2 *126:6 *126:14 35.6964 
3 *126:14 *644:A 23 
4 *126:6 *126:27 34.3293 
5 *126:27 *566:B1 23 
*END

*D_NET *127 0.000446333
*CONN
*I *645:A I *D sky130_fd_sc_hd__buf_2
*I *507:Y O *D sky130_fd_sc_hd__inv_2
*CAP
1 *645:A 0
2 *507:Y 0.000165337
3 *127:10 0.000165337
4 *127:10 *154:8 5.86165e-05
5 *80:75 *127:10 5.70419e-05
*RES
1 *507:Y *127:10 41.3557 
2 *127:10 *645:A 38 
*END

*D_NET *128 0.00921825
*CONN
*I *646:A I *D sky130_fd_sc_hd__buf_2
*I *574:B1 I *D sky130_fd_sc_hd__a21oi_1
*I *506:Y O *D sky130_fd_sc_hd__inv_2
*CAP
1 *646:A 0.000203077
2 *574:B1 0
3 *506:Y 0
4 *128:20 0.000355469
5 *128:12 0.00287245
6 *128:10 0.00266213
7 *128:6 0.000348227
8 *646:A *652:A 5.50049e-05
9 *646:A *155:12 4.21594e-06
10 *128:10 *155:12 9.67823e-05
11 *128:12 *589:D 4.75277e-05
12 *128:12 *651:A 0.0011793
13 *128:12 *153:6 0.000185434
14 *536:A *128:12 1.59094e-05
15 *536:B *128:12 1.14762e-05
16 *575:A2 *128:20 5.01247e-05
17 *598:D *128:20 5.3304e-05
18 *616:A *128:20 5.67058e-05
19 *620:A *128:10 0.000111138
20 *45:8 *128:20 0.000318411
21 *69:8 *128:12 3.70553e-06
22 *71:10 *128:20 0.000153155
23 *90:6 *128:12 4.06849e-05
24 *103:44 *128:20 0
25 *103:134 *646:A 0
26 *118:27 *128:12 8.41391e-05
27 *119:19 *646:A 2.70366e-05
28 *119:19 *128:10 4.08641e-05
29 *119:36 *646:A 0.000108672
30 *126:14 *128:20 0.000133316
*RES
1 *506:Y *128:6 38 
2 *128:6 *128:10 19.0186 
3 *128:10 *128:12 35.8771 
4 *128:12 *128:20 38.6793 
5 *128:20 *574:B1 23 
6 *128:6 *646:A 42.64 
*END

*D_NET *129 0.0125895
*CONN
*I *549:D I *D sky130_fd_sc_hd__and4bb_1
*I *541:A I *D sky130_fd_sc_hd__nand4_1
*I *539:A I *D sky130_fd_sc_hd__nand3_1
*I *578:A1 I *D sky130_fd_sc_hd__a21o_1
*I *538:A I *D sky130_fd_sc_hd__and3_1
*I *554:C_N I *D sky130_fd_sc_hd__nor3b_2
*I *545:C I *D sky130_fd_sc_hd__and3b_1
*I *576:A I *D sky130_fd_sc_hd__or2_1
*I *537:A I *D sky130_fd_sc_hd__nand2_1
*I *516:A_N I *D sky130_fd_sc_hd__and2b_1
*I *609:X O *D sky130_fd_sc_hd__clkbuf_2
*CAP
1 *549:D 0.000135868
2 *541:A 0.000451957
3 *539:A 0
4 *578:A1 0.000244082
5 *538:A 0
6 *554:C_N 2.34823e-05
7 *545:C 0
8 *576:A 0.000102606
9 *537:A 2.34823e-05
10 *516:A_N 0.000259791
11 *609:X 0.00028121
12 *129:116 0.000717646
13 *129:105 0.000260234
14 *129:84 0.000763104
15 *129:73 0.000877437
16 *129:60 0.000614532
17 *129:53 0.000502972
18 *129:38 0.000569818
19 *129:27 0.000439543
20 *129:10 0.0008906
21 *516:A_N *516:B 0
22 *541:A *541:D 3.2458e-05
23 *549:D *135:95 0
24 *554:C_N *135:27 0
25 *554:C_N *135:31 0
26 *576:A *576:B 3.98859e-05
27 *578:A1 *578:B1 5.50106e-05
28 *129:27 *517:D_N 0.000375645
29 *129:27 *518:D_N 4.34745e-05
30 *129:27 *135:61 1.76557e-05
31 *129:38 *135:61 3.71251e-05
32 *129:53 *576:B 9.21347e-06
33 *129:53 *135:37 0.000183315
34 *129:53 *135:39 1.69018e-05
35 *129:60 *135:31 3.22879e-05
36 *129:60 *135:37 9.90162e-05
37 *129:73 *135:14 2.6146e-05
38 *129:73 *135:27 0.000267686
39 *129:73 *135:31 9.86623e-05
40 *129:73 *135:89 2.18506e-05
41 *129:84 *135:89 0.000351508
42 *129:84 *135:95 0
43 *129:105 *539:C 0.000129137
44 *129:105 *541:D 1.24376e-05
45 *129:116 *541:D 0.000221242
46 *129:116 *135:95 0
47 *573:B1 *516:A_N 6.07611e-06
48 *573:B1 *129:10 9.52274e-05
49 *577:B *129:38 3.46673e-05
50 *580:B *541:A 0.000139357
51 *580:B *129:105 4.91851e-05
52 *580:B *129:116 0.000401106
53 *581:C *541:A 8.69799e-05
54 *609:A *129:10 3.3577e-05
55 *31:8 *516:A_N 0
56 *48:10 *576:A 0
57 *72:8 *576:A 4.08537e-05
58 *73:10 *578:A1 0.000293785
59 *74:10 *541:A 0.000438468
60 *80:8 *129:27 0.000313255
61 *89:16 *516:A_N 5.56306e-05
62 *89:22 *537:A 0
63 *89:22 *129:27 0.000400204
64 *89:22 *129:38 0.000213069
65 *89:37 *578:A1 0
66 *89:37 *129:84 0
67 *89:65 *129:105 5.3304e-05
68 *89:73 *578:A1 0.000166522
69 *91:10 *129:53 0
70 *93:6 *129:105 4.39725e-05
71 *93:12 *129:84 0.000177154
72 *95:6 *541:A 3.22879e-05
73 *99:8 *129:53 0
74 *105:10 *578:A1 0
75 *105:20 *578:A1 0.000127569
76 *105:20 *129:84 6.78125e-05
77 *111:8 *516:A_N 0
78 *111:8 *129:10 0
79 *114:30 *549:D 6.82521e-05
80 *114:30 *129:116 2.2119e-05
*RES
1 *609:X *129:10 42.5364 
2 *129:10 *516:A_N 42.7229 
3 *129:10 *129:27 24.3629 
4 *129:27 *537:A 23.4971 
5 *129:27 *129:38 17.5271 
6 *129:38 *576:A 39.9057 
7 *129:38 *129:53 22.0221 
8 *129:53 *545:C 23 
9 *129:53 *129:60 2.52714 
10 *129:60 *554:C_N 23.4971 
11 *129:60 *129:73 7.80929 
12 *129:73 *538:A 23 
13 *129:73 *129:84 22.6229 
14 *129:84 *578:A1 44.4007 
15 *129:84 *129:105 18.6664 
16 *129:105 *539:A 23 
17 *129:105 *129:116 20.2821 
18 *129:116 *541:A 47.8393 
19 *129:116 *549:D 40.2579 
*END

*D_NET *130 0.00874886
*CONN
*I *525:B I *D sky130_fd_sc_hd__or2_1
*I *519:B I *D sky130_fd_sc_hd__or2_1
*I *533:B I *D sky130_fd_sc_hd__or2_1
*I *531:B I *D sky130_fd_sc_hd__or2_1
*I *521:B I *D sky130_fd_sc_hd__or2_1
*I *654:X O *D sky130_fd_sc_hd__buf_1
*CAP
1 *525:B 0.000203584
2 *519:B 0
3 *533:B 0
4 *531:B 3.57483e-05
5 *521:B 0.000365861
6 *654:X 0
7 *130:54 0.000681433
8 *130:33 0.00126592
9 *130:18 0.00149542
10 *130:12 0.00105676
11 *130:6 0.000679513
12 *521:B *521:A 5.67058e-05
13 *521:B *622:A 0.000105934
14 *525:B *525:A 5.50049e-05
15 *525:B *651:A 1.41077e-05
16 *525:B *152:21 0
17 *130:12 *526:C1 0.000176045
18 *130:12 *136:6 5.77574e-05
19 *130:12 *136:10 0.000264352
20 *130:12 *136:40 0
21 *130:18 *519:A 0.000145236
22 *130:18 *131:21 5.41385e-05
23 *130:18 *136:26 3.22879e-05
24 *130:33 *131:21 7.76364e-06
25 *130:33 *136:26 3.36034e-05
26 *130:54 *653:A 0.000260384
27 *130:54 *141:10 0.000185434
28 *130:54 *145:8 0
29 *522:B1 *130:33 0.000162169
30 *585:CLK *130:33 0
31 *588:CLK *531:B 2.93845e-05
32 *620:A *130:54 0.000274543
33 *621:A *130:54 0.000142318
34 *35:10 *130:33 0
35 *80:81 *525:B 0.000119056
36 *80:81 *130:12 6.77032e-05
37 *80:91 *130:33 0
38 *80:99 *130:33 9.38328e-05
39 *81:8 *521:B 2.93747e-05
40 *81:8 *130:18 0.00013328
41 *82:8 *521:B 9.70909e-05
42 *88:10 *130:54 9.84794e-05
43 *103:90 *130:33 0
44 *103:90 *130:54 0
45 *103:92 *130:33 0
46 *113:18 *130:33 4.73716e-05
47 *119:19 *130:54 0.000101708
48 *120:14 *130:12 5.79559e-05
49 *120:14 *130:18 2.14535e-05
50 *120:20 *130:12 4.01511e-05
*RES
1 *654:X *130:6 38 
2 *130:6 *130:12 25.295 
3 *130:12 *130:18 9.23857 
4 *130:18 *521:B 30.7679 
5 *130:18 *130:33 25.4193 
6 *130:33 *531:B 38.6214 
7 *130:33 *130:54 30.9707 
8 *130:54 *533:B 23 
9 *130:12 *519:B 23 
10 *130:6 *525:B 42.4121 
*END

*D_NET *131 0.00202165
*CONN
*I *623:A I *D sky130_fd_sc_hd__dlygate4sd3_1
*I *647:A I *D sky130_fd_sc_hd__buf_2
*I *585:Q O *D sky130_fd_sc_hd__dfxtp_1
*CAP
1 *623:A 0
2 *647:A 0.000609142
3 *585:Q 0
4 *131:21 0.000149671
5 *131:4 0.000758812
6 *131:21 *136:26 1.01436e-05
7 *585:CLK *647:A 0.000333495
8 *585:CLK *131:21 0
9 *81:8 *131:21 9.84851e-05
10 *130:18 *131:21 5.41385e-05
11 *130:33 *131:21 7.76364e-06
*RES
1 *585:Q *131:4 23 
2 *131:4 *647:A 32.0936 
3 *131:4 *131:21 33.0036 
4 *131:21 *623:A 23 
*END

*D_NET *132 0.0137456
*CONN
*I *540:A_N I *D sky130_fd_sc_hd__and2b_1
*I *550:A I *D sky130_fd_sc_hd__or4_1
*I *553:A1 I *D sky130_fd_sc_hd__o41a_1
*I *559:A I *D sky130_fd_sc_hd__nor2_2
*I *518:D_N I *D sky130_fd_sc_hd__or4b_4
*I *517:D_N I *D sky130_fd_sc_hd__nor4b_1
*I *567:A I *D sky130_fd_sc_hd__or4_1
*I *570:A1 I *D sky130_fd_sc_hd__o41a_1
*I *582:A I *D sky130_fd_sc_hd__nand2_1
*I *543:A1 I *D sky130_fd_sc_hd__o21a_1
*I *610:X O *D sky130_fd_sc_hd__buf_2
*CAP
1 *540:A_N 0
2 *550:A 0
3 *553:A1 0
4 *559:A 0
5 *518:D_N 1.31139e-05
6 *517:D_N 8.03905e-05
7 *567:A 0
8 *570:A1 5.55899e-05
9 *582:A 0.000143944
10 *543:A1 0.000303176
11 *610:X 0.0003867
12 *132:84 0.000319207
13 *132:66 0.00010769
14 *132:62 0.000656974
15 *132:54 0.00145292
16 *132:46 0.00127046
17 *132:38 0.000432316
18 *132:36 0.000267761
19 *132:10 0.000511732
20 *132:8 0.000483471
21 *517:D_N *517:B 1.56665e-05
22 *517:D_N *133:56 0.00014196
23 *517:D_N *135:61 2.18409e-05
24 *518:D_N *135:61 2.93845e-05
25 *570:A1 *570:A3 0.000225399
26 *132:38 *133:119 0.000140259
27 *132:46 *133:119 6.70914e-05
28 *132:66 *570:A3 3.32563e-05
29 *132:84 *133:56 0.000154818
30 *132:84 *133:74 0.000243011
31 *132:84 *135:37 0
32 *132:84 *135:39 0
33 *517:A *517:D_N 0.000230604
34 *518:A *517:D_N 4.34745e-05
35 *540:B *132:38 0.000360843
36 *542:B *543:A1 1.22803e-05
37 *542:B *132:10 6.79006e-05
38 *542:B *132:36 4.54033e-05
39 *546:B1 *543:A1 6.63801e-05
40 *546:B1 *132:10 4.41619e-05
41 *546:B1 *132:36 2.82307e-05
42 *546:D1 *543:A1 0
43 *570:A4 *132:62 1.21972e-05
44 *570:A4 *132:66 1.21972e-05
45 *572:A1 *132:54 0.000153723
46 *572:B1 *132:54 5.50049e-05
47 *573:A3 *570:A1 2.32004e-05
48 *11:9 *132:84 0
49 *40:6 *543:A1 5.70419e-05
50 *70:12 *570:A1 0.000156577
51 *70:12 *132:54 0.000626984
52 *70:12 *132:62 0.000413933
53 *70:12 *132:66 0.000109895
54 *75:10 *582:A 3.22879e-05
55 *78:29 *132:46 0.00013961
56 *78:29 *132:54 0.000392386
57 *80:8 *517:D_N 0.00010018
58 *91:10 *132:84 0.000290399
59 *91:23 *132:84 5.46706e-05
60 *91:42 *132:84 2.55642e-05
61 *95:12 *543:A1 5.50106e-05
62 *95:23 *543:A1 0.00019619
63 *100:10 *543:A1 0
64 *107:34 *132:46 0.000192087
65 *107:49 *132:46 6.16531e-05
66 *108:24 *132:8 0.000254678
67 *108:24 *132:38 0.000958467
68 *112:29 *543:A1 2.26406e-05
69 *114:24 *132:46 0.000267167
70 *114:24 *132:54 0.000205341
71 *129:27 *517:D_N 0.000375645
72 *129:27 *518:D_N 4.34745e-05
*RES
1 *610:X *132:8 43.8621 
2 *132:8 *132:10 1.90571 
3 *132:10 *543:A1 44.8771 
4 *132:10 *582:A 40.5479 
5 *132:8 *132:36 16.2014 
6 *132:36 *132:38 10.6264 
7 *132:38 *132:46 36.3179 
8 *132:46 *132:54 24.1529 
9 *132:54 *132:62 8.53429 
10 *132:62 *132:66 1.595 
11 *132:66 *570:A1 25.5271 
12 *132:66 *567:A 23 
13 *132:62 *132:84 36.1314 
14 *132:84 *517:D_N 28.3857 
15 *132:84 *518:D_N 23.6214 
16 *132:54 *559:A 23 
17 *132:46 *553:A1 23 
18 *132:38 *550:A 23 
19 *132:36 *540:A_N 23 
*END

*D_NET *133 0.0125239
*CONN
*I *541:C I *D sky130_fd_sc_hd__nand4_1
*I *550:C I *D sky130_fd_sc_hd__or4_1
*I *553:A3 I *D sky130_fd_sc_hd__o41a_1
*I *538:B I *D sky130_fd_sc_hd__and3_1
*I *567:C I *D sky130_fd_sc_hd__or4_1
*I *570:A3 I *D sky130_fd_sc_hd__o41a_1
*I *518:B I *D sky130_fd_sc_hd__or4b_4
*I *517:B I *D sky130_fd_sc_hd__nor4b_1
*I *545:B I *D sky130_fd_sc_hd__and3b_1
*I *554:A I *D sky130_fd_sc_hd__nor3b_2
*I *611:X O *D sky130_fd_sc_hd__buf_2
*CAP
1 *541:C 0
2 *550:C 0
3 *553:A3 0
4 *538:B 0
5 *567:C 0
6 *570:A3 0.000126684
7 *518:B 0
8 *517:B 0.000105078
9 *545:B 0
10 *554:A 3.6966e-05
11 *611:X 0.000153875
12 *133:119 0.000595868
13 *133:106 0.000714491
14 *133:74 0.000269072
15 *133:56 0.000271455
16 *133:48 0.000710478
17 *133:37 0.000906913
18 *133:35 0.000545931
19 *133:24 0.00070333
20 *133:14 0.000730378
21 *133:10 0.000377242
22 *517:B *517:C 0.000435277
23 *554:A *538:C 1.10698e-05
24 *554:A *135:14 2.49683e-05
25 *554:A *135:27 6.14306e-05
26 *554:A *135:31 1.18939e-05
27 *133:24 *134:14 0.000413793
28 *133:24 *134:20 0.000143471
29 *133:24 *135:14 5.67058e-05
30 *133:24 *135:89 0.000596521
31 *133:37 *135:27 3.40295e-05
32 *133:37 *135:31 0.000170365
33 *133:37 *135:37 9.90162e-05
34 *133:48 *135:37 0.000397602
35 *133:56 *517:C 2.66665e-05
36 *133:56 *135:61 9.84794e-05
37 *517:A *517:B 0.000270682
38 *517:D_N *517:B 1.56665e-05
39 *517:D_N *133:56 0.00014196
40 *518:A *517:B 5.50106e-05
41 *540:B *133:119 0.000181125
42 *546:A2 *133:119 0
43 *546:D1 *133:119 0
44 *550:B *133:14 7.70737e-05
45 *550:B *133:106 2.18409e-05
46 *557:A3 *133:10 1.39431e-05
47 *570:A1 *570:A3 0.000225399
48 *570:A4 *570:A3 0.000436735
49 *573:A3 *570:A3 5.29672e-05
50 *11:9 *133:56 3.63658e-05
51 *11:9 *133:74 7.10051e-05
52 *52:10 *133:24 5.67058e-05
53 *55:10 *133:10 0
54 *55:10 *133:14 3.71198e-05
55 *55:10 *133:24 2.76611e-06
56 *58:8 *133:10 4.60263e-05
57 *74:10 *133:119 1.38134e-05
58 *76:19 *133:24 0.000185755
59 *76:32 *133:14 1.14452e-05
60 *76:32 *133:24 5.15096e-05
61 *78:12 *133:119 0
62 *78:46 *133:24 0
63 *80:8 *517:B 1.57571e-05
64 *91:42 *133:24 2.05503e-05
65 *98:10 *133:24 5.67058e-05
66 *105:14 *133:24 0.000211113
67 *105:27 *133:24 4.5051e-05
68 *107:21 *133:119 0
69 *107:34 *133:119 0
70 *107:49 *133:106 8.48502e-06
71 *107:55 *133:106 3.7122e-06
72 *108:24 *133:10 6.48142e-05
73 *108:24 *133:14 1.88972e-05
74 *108:24 *133:106 0.00011501
75 *108:24 *133:119 4.34876e-05
76 *109:22 *133:106 0.000180218
77 *114:24 *133:119 0.000192087
78 *114:30 *133:24 7.56417e-05
79 *132:38 *133:119 0.000140259
80 *132:46 *133:119 6.70914e-05
81 *132:66 *570:A3 3.32563e-05
82 *132:84 *133:56 0.000154818
83 *132:84 *133:74 0.000243011
*RES
1 *611:X *133:10 40.8793 
2 *133:10 *133:14 2.52714 
3 *133:14 *133:24 32.7936 
4 *133:24 *554:A 25.0714 
5 *133:24 *133:35 0.849286 
6 *133:35 *133:37 8.24429 
7 *133:37 *545:B 23 
8 *133:37 *133:48 22.3121 
9 *133:48 *133:56 19.3293 
10 *133:56 *517:B 27.93 
11 *133:56 *518:B 23 
12 *133:48 *133:74 18.3143 
13 *133:74 *570:A3 28.4271 
14 *133:74 *567:C 23 
15 *133:35 *538:B 23 
16 *133:14 *553:A3 38 
17 *133:10 *133:106 18.0036 
18 *133:106 *550:C 23 
19 *133:106 *133:119 41.1236 
20 *133:119 *541:C 23 
*END

*D_NET *134 0.0048863
*CONN
*I *546:C1 I *D sky130_fd_sc_hd__o2111a_1
*I *549:B_N I *D sky130_fd_sc_hd__and4bb_1
*I *544:B I *D sky130_fd_sc_hd__and2b_1
*I *539:B I *D sky130_fd_sc_hd__nand3_1
*I *578:B1 I *D sky130_fd_sc_hd__a21o_1
*I *612:X O *D sky130_fd_sc_hd__buf_1
*CAP
1 *546:C1 0.000476524
2 *549:B_N 0
3 *544:B 0
4 *539:B 0
5 *578:B1 0.0004331
6 *612:X 0
7 *134:20 0.000633205
8 *134:14 0.000399595
9 *134:8 0.000369352
10 *134:4 0.000646386
11 *578:B1 *135:95 6.16531e-05
12 *134:20 *135:95 0.000181134
13 *504:A *546:C1 5.50106e-05
14 *504:A *134:8 0
15 *504:A *134:14 0
16 *505:A *546:C1 9.70909e-05
17 *505:A *134:14 4.38084e-05
18 *546:B1 *546:C1 3.79854e-05
19 *549:C *134:14 5.50049e-05
20 *578:A1 *578:B1 5.50106e-05
21 *73:10 *578:B1 7.53384e-06
22 *76:8 *546:C1 2.80394e-05
23 *76:8 *134:8 6.32895e-05
24 *76:8 *134:14 5.3304e-05
25 *77:6 *546:C1 5.29672e-05
26 *105:20 *578:B1 0.000194449
27 *105:20 *134:20 6.31807e-05
28 *105:27 *134:14 9.51143e-05
29 *105:27 *134:20 0.0002263
30 *133:24 *134:14 0.000413793
31 *133:24 *134:20 0.000143471
*RES
1 *612:X *134:4 23 
2 *134:4 *134:8 2.54786 
3 *134:8 *134:14 6.73214 
4 *134:14 *134:20 20.1371 
5 *134:20 *578:B1 46.4514 
6 *134:20 *539:B 38 
7 *134:14 *544:B 23 
8 *134:8 *549:B_N 23 
9 *134:4 *546:C1 30.2914 
*END

*D_NET *135 0.00989904
*CONN
*I *544:A_N I *D sky130_fd_sc_hd__and2b_1
*I *541:D I *D sky130_fd_sc_hd__nand4_1
*I *539:C I *D sky130_fd_sc_hd__nand3_1
*I *554:B I *D sky130_fd_sc_hd__nor3b_2
*I *545:A_N I *D sky130_fd_sc_hd__and3b_1
*I *517:C I *D sky130_fd_sc_hd__nor4b_1
*I *518:C I *D sky130_fd_sc_hd__or4b_4
*I *537:B I *D sky130_fd_sc_hd__nand2_1
*I *576:B I *D sky130_fd_sc_hd__or2_1
*I *538:C I *D sky130_fd_sc_hd__and3_1
*I *613:X O *D sky130_fd_sc_hd__buf_2
*CAP
1 *544:A_N 0
2 *541:D 0.000638235
3 *539:C 0.00013544
4 *554:B 0
5 *545:A_N 0
6 *517:C 0.000398172
7 *518:C 0
8 *537:B 0
9 *576:B 0.000166094
10 *538:C 2.52818e-06
11 *613:X 8.07429e-05
12 *135:95 0.00104752
13 *135:89 0.000467852
14 *135:61 0.000535801
15 *135:39 0.00021053
16 *135:37 0.000470983
17 *135:31 0.000377575
18 *135:27 0.000180261
19 *135:14 0.000118706
20 *135:10 0.000218578
21 *135:8 8.07429e-05
22 *517:B *517:C 0.000435277
23 *517:D_N *135:61 2.18409e-05
24 *518:D_N *135:61 2.93845e-05
25 *541:A *541:D 3.2458e-05
26 *541:B *541:D 4.66047e-05
27 *549:D *135:95 0
28 *554:A *538:C 1.10698e-05
29 *554:A *135:14 2.49683e-05
30 *554:A *135:27 6.14306e-05
31 *554:A *135:31 1.18939e-05
32 *554:C_N *135:27 0
33 *554:C_N *135:31 0
34 *576:A *576:B 3.98859e-05
35 *577:B *135:61 4.17736e-05
36 *578:B1 *135:95 6.16531e-05
37 *580:B *541:D 5.15231e-05
38 *581:C *541:D 5.50106e-05
39 *613:A *135:8 6.68793e-05
40 *11:9 *576:B 0
41 *74:10 *541:D 0.000389433
42 *80:8 *517:C 1.32939e-05
43 *91:10 *135:37 3.13424e-05
44 *91:10 *135:61 0.00010018
45 *92:8 *135:8 4.13358e-05
46 *114:32 *576:B 1.73399e-05
47 *129:27 *135:61 1.76557e-05
48 *129:38 *135:61 3.71251e-05
49 *129:53 *576:B 9.21347e-06
50 *129:53 *135:37 0.000183315
51 *129:53 *135:39 1.69018e-05
52 *129:60 *135:31 3.22879e-05
53 *129:60 *135:37 9.90162e-05
54 *129:73 *135:14 2.6146e-05
55 *129:73 *135:27 0.000267686
56 *129:73 *135:31 9.86623e-05
57 *129:73 *135:89 2.18506e-05
58 *129:84 *135:89 0.000351508
59 *129:84 *135:95 0
60 *129:105 *539:C 0.000129137
61 *129:105 *541:D 1.24376e-05
62 *129:116 *541:D 0.000221242
63 *129:116 *135:95 0
64 *132:84 *135:37 0
65 *132:84 *135:39 0
66 *133:24 *135:14 5.67058e-05
67 *133:24 *135:89 0.000596521
68 *133:37 *135:27 3.40295e-05
69 *133:37 *135:31 0.000170365
70 *133:37 *135:37 9.90162e-05
71 *133:48 *135:37 0.000397602
72 *133:56 *517:C 2.66665e-05
73 *133:56 *135:61 9.84794e-05
74 *134:20 *135:95 0.000181134
*RES
1 *613:X *135:8 39.9057 
2 *135:8 *135:10 15 
3 *135:10 *135:14 1.02536 
4 *135:14 *538:C 23.3004 
5 *135:14 *135:27 3.73893 
6 *135:27 *135:31 3.97714 
7 *135:31 *135:37 23.5964 
8 *135:37 *135:39 0.849286 
9 *135:39 *576:B 40.8793 
10 *135:39 *537:B 38 
11 *135:37 *135:61 18.48 
12 *135:61 *518:C 23 
13 *135:61 *517:C 29.7321 
14 *135:31 *545:A_N 23 
15 *135:27 *554:B 23 
16 *135:10 *135:89 6.815 
17 *135:89 *135:95 34.0186 
18 *135:95 *539:C 25.0714 
19 *135:95 *541:D 35.5736 
20 *135:89 *544:A_N 23 
*END

*D_NET *136 0.0170931
*CONN
*I *535:A I *D sky130_fd_sc_hd__and2_2
*I *516:B I *D sky130_fd_sc_hd__and2b_1
*I *524:C1 I *D sky130_fd_sc_hd__o211a_1
*I *526:C1 I *D sky130_fd_sc_hd__o211a_1
*I *530:C1 I *D sky130_fd_sc_hd__o211a_1
*I *528:C1 I *D sky130_fd_sc_hd__o211a_1
*I *532:C1 I *D sky130_fd_sc_hd__o211a_1
*I *534:C1 I *D sky130_fd_sc_hd__o211a_1
*I *522:C1 I *D sky130_fd_sc_hd__o211a_1
*I *520:C1 I *D sky130_fd_sc_hd__o211a_1
*I *614:X O *D sky130_fd_sc_hd__buf_2
*CAP
1 *535:A 3.2699e-05
2 *516:B 0.000288874
3 *524:C1 0
4 *526:C1 0.000176914
5 *530:C1 0
6 *528:C1 3.40974e-05
7 *532:C1 0
8 *534:C1 0.000176086
9 *522:C1 0
10 *520:C1 0
11 *614:X 7.79983e-05
12 *136:116 0.000833142
13 *136:103 0.00143833
14 *136:83 0.000794398
15 *136:64 0.00168907
16 *136:51 0.00102523
17 *136:40 0.000871732
18 *136:26 0.000208637
19 *136:16 0.000464404
20 *136:14 0.000932228
21 *136:10 0.000510384
22 *136:6 0.00119276
23 *516:B *137:10 0
24 *534:C1 *534:A1 5.67058e-05
25 *534:C1 *651:A 0.00030242
26 *534:C1 *155:12 0.000366444
27 *535:A *137:10 0
28 *136:14 *151:12 0.000194966
29 *136:16 *151:12 5.40241e-05
30 *136:40 *145:8 0
31 *136:40 *151:12 4.587e-05
32 *136:40 *152:21 0.000272312
33 *136:51 *152:21 1.01436e-05
34 *136:51 *155:12 0
35 *136:64 *155:12 0
36 *136:83 *139:10 2.29192e-05
37 *136:116 *137:10 9.84851e-05
38 *515:A *535:A 1.83564e-05
39 *515:A *136:116 4.82073e-05
40 *516:A_N *516:B 0
41 *522:B1 *136:26 0.000162169
42 *524:B1 *136:103 3.22879e-05
43 *526:B1 *526:C1 0.000229793
44 *530:A2 *136:83 4.00259e-06
45 *532:A1 *136:64 0
46 *573:B1 *535:A 0
47 *591:D *136:64 0.000172412
48 *31:8 *516:B 0.000166513
49 *38:8 *136:64 0
50 *80:12 *535:A 6.07611e-06
51 *80:18 *136:103 2.65445e-05
52 *80:18 *136:116 0.000500045
53 *80:44 *136:83 5.2894e-05
54 *80:62 *528:C1 1.37232e-05
55 *80:62 *136:83 0.000197496
56 *80:75 *136:64 3.34247e-05
57 *80:75 *136:83 4.75206e-05
58 *80:81 *526:C1 0.000182621
59 *80:91 *136:16 0.000260102
60 *80:91 *136:26 5.50106e-05
61 *80:132 *534:C1 0.000968513
62 *81:8 *136:26 5.50049e-05
63 *87:10 *136:51 0.000114268
64 *87:10 *136:64 6.07611e-06
65 *89:16 *516:B 0
66 *103:80 *136:83 0.000268873
67 *103:134 *136:64 7.8667e-05
68 *112:29 *136:103 0.000135504
69 *112:29 *136:116 0.0001618
70 *118:33 *136:64 2.02872e-05
71 *118:37 *136:64 0.000269545
72 *120:24 *136:14 5.99365e-05
73 *130:12 *526:C1 0.000176045
74 *130:12 *136:6 5.77574e-05
75 *130:12 *136:10 0.000264352
76 *130:12 *136:40 0
77 *130:18 *136:26 3.22879e-05
78 *130:33 *136:26 3.36034e-05
79 *131:21 *136:26 1.01436e-05
*RES
1 *614:X *136:6 24.0979 
2 *136:6 *136:10 19.0186 
3 *136:10 *136:14 18.9564 
4 *136:14 *136:16 5.38571 
5 *136:16 *136:26 34.5571 
6 *136:26 *520:C1 23 
7 *136:16 *522:C1 23 
8 *136:14 *136:40 23.2443 
9 *136:40 *534:C1 48.6264 
10 *136:40 *136:51 3.31429 
11 *136:51 *532:C1 38 
12 *136:51 *136:64 27.5321 
13 *136:64 *528:C1 23.8493 
14 *136:64 *136:83 41.8693 
15 *136:83 *530:C1 23 
16 *136:10 *526:C1 43.1371 
17 *136:6 *136:103 12.905 
18 *136:103 *524:C1 23 
19 *136:103 *136:116 27.5736 
20 *136:116 *516:B 43.4686 
21 *136:116 *535:A 38.8493 
*END

*D_NET *137 0.000593401
*CONN
*I *584:CLK I *D sky130_fd_sc_hd__dfxtp_1
*I *515:Y O *D sky130_fd_sc_hd__inv_2
*CAP
1 *584:CLK 0
2 *515:Y 0.000189739
3 *137:10 0.000189739
4 *515:A *137:10 1.69532e-05
5 *516:B *137:10 0
6 *535:A *137:10 0
7 *80:18 *137:10 9.84851e-05
8 *136:116 *137:10 9.84851e-05
*RES
1 *515:Y *137:10 42.06 
2 *137:10 *584:CLK 38 
*END

*D_NET *138 0.000269523
*CONN
*I *530:A1 I *D sky130_fd_sc_hd__o211a_1
*I *615:X O *D sky130_fd_sc_hd__dlygate4sd3_1
*CAP
1 *530:A1 0
2 *615:X 6.54166e-05
3 *138:8 6.54166e-05
4 *79:49 *138:8 6.93449e-05
5 *86:10 *138:8 6.93449e-05
*RES
1 *615:X *138:8 39.9057 
2 *138:8 *530:A1 38 
*END

*D_NET *139 0.000470828
*CONN
*I *590:D I *D sky130_fd_sc_hd__dfxtp_1
*I *619:X O *D sky130_fd_sc_hd__dlygate4sd3_1
*CAP
1 *590:D 5.48656e-06
2 *619:X 0.00014876
3 *139:10 0.000154246
4 *36:10 *139:10 5.50049e-05
5 *47:8 *590:D 7.10068e-06
6 *80:62 *139:10 6.08751e-05
7 *103:80 *590:D 1.64354e-05
8 *136:83 *139:10 2.29192e-05
*RES
1 *619:X *139:10 40.5271 
2 *139:10 *590:D 38.1916 
*END

*D_NET *140 0.000506417
*CONN
*I *534:A1 I *D sky130_fd_sc_hd__o211a_1
*I *620:X O *D sky130_fd_sc_hd__dlygate4sd3_1
*CAP
1 *534:A1 6.80159e-05
2 *620:X 6.80159e-05
3 *534:A1 *651:A 0.000228001
4 *534:C1 *534:A1 5.67058e-05
5 *80:132 *534:A1 8.56776e-05
*RES
1 *620:X *534:A1 49.0243 
*END

*D_NET *141 0.000673795
*CONN
*I *592:D I *D sky130_fd_sc_hd__dfxtp_1
*I *621:X O *D sky130_fd_sc_hd__dlygate4sd3_1
*CAP
1 *592:D 1.36537e-05
2 *621:X 0.000202722
3 *141:10 0.000216376
4 *88:10 *141:10 5.561e-05
5 *130:54 *141:10 0.000185434
*RES
1 *621:X *141:10 41.6043 
2 *141:10 *592:D 38.1916 
*END

*D_NET *142 0.00155662
*CONN
*I *622:A I *D sky130_fd_sc_hd__dlygate4sd3_1
*I *648:A I *D sky130_fd_sc_hd__buf_2
*I *586:Q O *D sky130_fd_sc_hd__dfxtp_1
*CAP
1 *622:A 9.8196e-05
2 *648:A 0.000183497
3 *586:Q 0.000202799
4 *142:10 0.000484492
5 *622:A *521:A 7.88926e-05
6 *521:B *622:A 0.000105934
7 *4:10 *648:A 0
8 *82:8 *622:A 0.000402806
*RES
1 *586:Q *142:10 40.6514 
2 *142:10 *648:A 41.3143 
3 *142:10 *622:A 42.93 
*END

*D_NET *143 0.000241627
*CONN
*I *521:A I *D sky130_fd_sc_hd__or2_1
*I *622:X O *D sky130_fd_sc_hd__dlygate4sd3_1
*CAP
1 *521:A 5.30141e-05
2 *622:X 5.30141e-05
3 *521:B *521:A 5.67058e-05
4 *622:A *521:A 7.88926e-05
*RES
1 *622:X *521:A 47.5743 
*END

*D_NET *144 0.000253565
*CONN
*I *519:A I *D sky130_fd_sc_hd__or2_1
*I *623:X O *D sky130_fd_sc_hd__dlygate4sd3_1
*CAP
1 *519:A 3.80619e-05
2 *623:X 3.80619e-05
3 *81:8 *519:A 3.22051e-05
4 *130:18 *519:A 0.000145236
*RES
1 *623:X *519:A 47.5743 
*END

*D_NET *145 0.000599065
*CONN
*I *531:A I *D sky130_fd_sc_hd__or2_1
*I *624:X O *D sky130_fd_sc_hd__dlygate4sd3_1
*CAP
1 *531:A 6.8688e-05
2 *624:X 0.000105676
3 *145:8 0.000174364
4 *531:A *650:A 2.65879e-05
5 *588:CLK *531:A 8.1796e-05
6 *87:10 *531:A 0.000141954
7 *130:54 *145:8 0
8 *136:40 *145:8 0
*RES
1 *624:X *145:8 39.5536 
2 *145:8 *531:A 40.5271 
*END

*D_NET *146 0.00160825
*CONN
*I *542:A I *D sky130_fd_sc_hd__or2_1
*I *625:X O *D sky130_fd_sc_hd__dlygate4sd3_1
*CAP
1 *542:A 0.000520612
2 *625:X 5.94633e-05
3 *146:8 0.000580075
4 *583:A1 *542:A 0.000138444
5 *108:12 *542:A 9.91798e-05
6 *108:12 *146:8 8.62876e-05
7 *108:24 *542:A 0.000124185
*RES
1 *625:X *146:8 39.2014 
2 *146:8 *542:A 45.7886 
*END

*D_NET *147 0.000248482
*CONN
*I *525:A I *D sky130_fd_sc_hd__or2_1
*I *626:X O *D sky130_fd_sc_hd__dlygate4sd3_1
*CAP
1 *525:A 5.80692e-05
2 *626:X 5.80692e-05
3 *525:A *651:A 7.73389e-05
4 *525:B *525:A 5.50049e-05
*RES
1 *626:X *525:A 47.5743 
*END

*D_NET *148 0.00308057
*CONN
*I *528:A1 I *D sky130_fd_sc_hd__o211a_1
*I *616:X O *D sky130_fd_sc_hd__dlygate4sd3_1
*CAP
1 *528:A1 0
2 *616:X 0.00103824
3 *148:12 0.00103824
4 *598:D *148:12 0.000168171
5 *615:A *148:12 0.000165341
6 *619:A *148:12 5.3304e-05
7 *36:10 *148:12 0.000153723
8 *80:62 *148:12 0.000319962
9 *80:75 *148:12 3.91386e-05
10 *103:44 *148:12 0.000104454
*RES
1 *616:X *148:12 42.6164 
2 *148:12 *528:A1 23 
*END

*D_NET *149 0.000313243
*CONN
*I *589:D I *D sky130_fd_sc_hd__dfxtp_1
*I *617:X O *D sky130_fd_sc_hd__dlygate4sd3_1
*CAP
1 *589:D 4.79189e-05
2 *617:X 4.79189e-05
3 *118:27 *589:D 0.000169878
4 *128:12 *589:D 4.75277e-05
*RES
1 *617:X *589:D 47.8902 
*END

*D_NET *150 0.000217063
*CONN
*I *523:A I *D sky130_fd_sc_hd__or2_1
*I *618:X O *D sky130_fd_sc_hd__dlygate4sd3_1
*CAP
1 *523:A 8.82716e-05
2 *618:X 8.82716e-05
3 *526:A1 *523:A 4.05196e-05
*RES
1 *618:X *523:A 47.5743 
*END

*D_NET *151 0.00444084
*CONN
*I *618:A I *D sky130_fd_sc_hd__dlygate4sd3_1
*I *649:A I *D sky130_fd_sc_hd__buf_2
*I *587:Q O *D sky130_fd_sc_hd__dfxtp_1
*CAP
1 *618:A 0
2 *649:A 0.000849729
3 *587:Q 0
4 *151:29 0.000254376
5 *151:12 0.00168401
6 *151:4 0.00108866
7 *35:10 *649:A 2.49531e-05
8 *80:91 *649:A 0.000142173
9 *80:91 *151:12 2.04854e-05
10 *83:8 *151:29 0
11 *103:14 *151:29 0
12 *120:24 *151:12 6.10027e-05
13 *120:24 *151:29 2.05898e-05
14 *136:14 *151:12 0.000194966
15 *136:16 *151:12 5.40241e-05
16 *136:40 *151:12 4.587e-05
*RES
1 *587:Q *151:4 23 
2 *151:4 *151:12 42.18 
3 *151:12 *649:A 37.935 
4 *151:4 *151:29 33.9564 
5 *151:29 *618:A 23 
*END

*D_NET *152 0.00379583
*CONN
*I *626:A I *D sky130_fd_sc_hd__dlygate4sd3_1
*I *650:A I *D sky130_fd_sc_hd__buf_2
*I *588:Q O *D sky130_fd_sc_hd__dfxtp_1
*CAP
1 *626:A 0
2 *650:A 0.00122445
3 *588:Q 0.000187539
4 *152:21 0.000120273
5 *152:6 0.00153227
6 *525:B *152:21 0
7 *531:A *650:A 2.65879e-05
8 *588:CLK *650:A 0.000247714
9 *588:D *650:A 4.9054e-06
10 *87:10 *650:A 2.64351e-05
11 *87:10 *152:6 4.46957e-06
12 *87:10 *152:21 0.000138727
13 *136:40 *152:21 0.000272312
14 *136:51 *152:21 1.01436e-05
*RES
1 *588:Q *152:6 25.5271 
2 *152:6 *650:A 40.0686 
3 *152:6 *152:21 33.6664 
4 *152:21 *626:A 23 
*END

*D_NET *153 0.00474098
*CONN
*I *527:A I *D sky130_fd_sc_hd__or2_1
*I *651:A I *D sky130_fd_sc_hd__buf_2
*I *589:Q O *D sky130_fd_sc_hd__dfxtp_1
*CAP
1 *527:A 0
2 *651:A 0.000899894
3 *589:Q 6.11392e-05
4 *153:21 0.000121032
5 *153:6 0.00108206
6 *651:A *155:12 0.000364749
7 *153:21 *154:8 0
8 *525:A *651:A 7.73389e-05
9 *525:B *651:A 1.41077e-05
10 *534:A1 *651:A 0.000228001
11 *534:C1 *651:A 0.00030242
12 *79:38 *153:21 0.000188916
13 *80:132 *651:A 3.65917e-05
14 *118:33 *153:21 0
15 *128:12 *651:A 0.0011793
16 *128:12 *153:6 0.000185434
*RES
1 *589:Q *153:6 25.0507 
2 *153:6 *651:A 46.3864 
3 *153:6 *153:21 32.61 
4 *153:21 *527:A 23 
*END

*D_NET *154 0.00469027
*CONN
*I *529:A I *D sky130_fd_sc_hd__or2_1
*I *652:A I *D sky130_fd_sc_hd__buf_2
*I *590:Q O *D sky130_fd_sc_hd__dfxtp_1
*CAP
1 *529:A 0.000441454
2 *652:A 0.00110671
3 *590:Q 0.000320646
4 *154:10 0.00154816
5 *154:8 0.000320646
6 *637:A *652:A 0.000100061
7 *646:A *652:A 5.50049e-05
8 *20:8 *652:A 0.000146197
9 *79:49 *529:A 0.00010018
10 *80:75 *154:8 0
11 *118:33 *154:8 0.000240426
12 *119:36 *652:A 0.000252161
13 *127:10 *154:8 5.86165e-05
14 *153:21 *154:8 0
*RES
1 *590:Q *154:8 44.8357 
2 *154:8 *154:10 15 
3 *154:10 *652:A 44.1286 
4 *154:10 *529:A 30.7679 
*END

*D_NET *155 0.00312405
*CONN
*I *653:A I *D sky130_fd_sc_hd__buf_2
*I *624:A I *D sky130_fd_sc_hd__dlygate4sd3_1
*I *591:Q O *D sky130_fd_sc_hd__dfxtp_1
*CAP
1 *653:A 0.000594674
2 *624:A 0
3 *591:Q 0
4 *155:12 0.000284313
5 *155:4 0.000878986
6 *506:A *653:A 5.50106e-05
7 *534:C1 *155:12 0.000366444
8 *620:A *155:12 0
9 *621:A *653:A 0.000182826
10 *646:A *155:12 4.21594e-06
11 *651:A *155:12 0.000364749
12 *103:134 *155:12 3.5664e-05
13 *128:10 *155:12 9.67823e-05
14 *130:54 *653:A 0.000260384
15 *136:51 *155:12 0
16 *136:64 *155:12 0
*RES
1 *591:Q *155:4 23 
2 *155:4 *155:12 38.6793 
3 *155:12 *624:A 23 
4 *155:4 *653:A 35.8014 
*END
