*SPEF "ieee 1481-1999"
*DESIGN "controller"
*DATE "16:33:36 Thursday December 18, 2025"
*VENDOR "The OpenROAD Project"
*PROGRAM "OpenROAD"
*VERSION "edf00dff99f6c40d67a30c0e22a8191c5d2ed9d6"
*DESIGN_FLOW "NAME_SCOPE LOCAL" "PIN_CAP NONE"
*DIVIDER /
*DELIMITER :
*BUS_DELIMITER []
*T_UNIT 1 NS
*C_UNIT 1 PF
*R_UNIT 1 OHM
*L_UNIT 1 HENRY

*NAME_MAP
*3 adc_out[0]
*4 adc_out[1]
*5 adc_out[2]
*6 adc_out[3]
*7 adc_out[4]
*8 adc_out[5]
*9 adc_out[6]
*10 adc_out[7]
*11 clk
*12 comp
*13 comparator_clk
*14 dac_in[0]
*15 dac_in[1]
*16 dac_in[2]
*17 dac_in[3]
*18 dac_in[4]
*19 dac_in[5]
*20 dac_in[6]
*21 dac_in[7]
*22 dac_in_n[0]
*23 dac_in_n[1]
*24 dac_in_n[2]
*25 dac_in_n[3]
*26 dac_in_n[4]
*27 dac_in_n[5]
*28 dac_in_n[6]
*29 dac_in_n[7]
*30 rst_n
*31 _001_
*32 _002_
*33 _003_
*34 _004_
*35 _005_
*36 _006_
*37 _007_
*38 _008_
*39 _009_
*40 _010_
*41 _011_
*42 _012_
*43 _013_
*44 _014_
*45 _015_
*46 _016_
*47 _017_
*48 _018_
*49 _019_
*50 _020_
*51 _021_
*52 _022_
*53 _023_
*54 _024_
*55 _025_
*56 _026_
*57 _027_
*58 _028_
*59 _029_
*60 _030_
*61 _031_
*62 _032_
*63 _033_
*64 _034_
*65 _035_
*66 _036_
*67 _037_
*68 _038_
*69 _039_
*70 _040_
*71 _041_
*72 _042_
*73 _043_
*74 _044_
*75 _045_
*76 _046_
*77 _047_
*78 _048_
*79 _049_
*80 _050_
*81 _051_
*82 _052_
*83 _053_
*84 _054_
*85 _055_
*86 _056_
*87 _057_
*88 _058_
*89 _059_
*90 _060_
*91 _061_
*92 _062_
*93 _063_
*94 _064_
*95 _065_
*96 _066_
*97 _067_
*98 _068_
*99 _069_
*100 _070_
*101 _071_
*102 clknet_0_clk
*103 clknet_1_0__leaf_clk
*104 clknet_1_1__leaf_clk
*105 count\[0\]
*106 count\[1\]
*107 count\[2\]
*108 count\[3\]
*109 net1
*110 net10
*111 net11
*112 net12
*113 net13
*114 net14
*115 net15
*116 net16
*117 net17
*118 net18
*119 net19
*120 net2
*121 net20
*122 net21
*123 net22
*124 net23
*125 net24
*126 net25
*127 net26
*128 net27
*129 net28
*130 net29
*131 net3
*132 net30
*133 net31
*134 net32
*135 net33
*136 net34
*137 net35
*138 net36
*139 net37
*140 net38
*141 net39
*142 net4
*143 net40
*144 net41
*145 net42
*146 net43
*147 net44
*148 net45
*149 net46
*150 net47
*151 net5
*152 net6
*153 net7
*154 net8
*155 net9
*156 FILLER_0_102
*157 FILLER_0_110
*158 FILLER_0_113
*159 FILLER_0_125
*160 FILLER_0_137
*161 FILLER_0_141
*162 FILLER_0_153
*163 FILLER_0_160
*164 FILLER_0_169
*165 FILLER_0_18
*166 FILLER_0_181
*167 FILLER_0_193
*168 FILLER_0_197
*169 FILLER_0_209
*170 FILLER_0_221
*171 FILLER_0_225
*172 FILLER_0_237
*173 FILLER_0_249
*174 FILLER_0_253
*175 FILLER_0_26
*176 FILLER_0_265
*177 FILLER_0_277
*178 FILLER_0_281
*179 FILLER_0_287
*180 FILLER_0_29
*181 FILLER_0_41
*182 FILLER_0_53
*183 FILLER_0_57
*184 FILLER_0_6
*185 FILLER_0_69
*186 FILLER_0_81
*187 FILLER_0_85
*188 FILLER_0_93
*189 FILLER_1_106
*190 FILLER_1_11
*191 FILLER_1_113
*192 FILLER_1_121
*193 FILLER_1_143
*194 FILLER_1_151
*195 FILLER_1_169
*196 FILLER_1_181
*197 FILLER_1_193
*198 FILLER_1_212
*199 FILLER_1_225
*200 FILLER_1_237
*201 FILLER_1_249
*202 FILLER_1_261
*203 FILLER_1_273
*204 FILLER_1_279
*205 FILLER_1_28
*206 FILLER_1_281
*207 FILLER_1_40
*208 FILLER_1_52
*209 FILLER_1_57
*210 FILLER_1_69
*211 FILLER_1_81
*212 FILLER_1_89
*213 FILLER_2_122
*214 FILLER_2_130
*215 FILLER_2_138
*216 FILLER_2_141
*217 FILLER_2_153
*218 FILLER_2_163
*219 FILLER_2_17
*220 FILLER_2_171
*221 FILLER_2_177
*222 FILLER_2_185
*223 FILLER_2_226
*224 FILLER_2_238
*225 FILLER_2_250
*226 FILLER_2_253
*227 FILLER_2_26
*228 FILLER_2_265
*229 FILLER_2_277
*230 FILLER_2_285
*231 FILLER_2_3
*232 FILLER_2_46
*233 FILLER_2_58
*234 FILLER_2_72
*235 FILLER_2_85
*236 FILLER_2_94
*237 FILLER_3_101
*238 FILLER_3_109
*239 FILLER_3_113
*240 FILLER_3_125
*241 FILLER_3_150
*242 FILLER_3_185
*243 FILLER_3_191
*244 FILLER_3_204
*245 FILLER_3_216
*246 FILLER_3_225
*247 FILLER_3_237
*248 FILLER_3_249
*249 FILLER_3_261
*250 FILLER_3_273
*251 FILLER_3_279
*252 FILLER_3_28
*253 FILLER_3_281
*254 FILLER_3_287
*255 FILLER_3_3
*256 FILLER_3_40
*257 FILLER_3_52
*258 FILLER_3_57
*259 FILLER_3_74
*260 FILLER_3_78
*261 FILLER_3_95
*262 FILLER_4_111
*263 FILLER_4_119
*264 FILLER_4_125
*265 FILLER_4_131
*266 FILLER_4_139
*267 FILLER_4_151
*268 FILLER_4_159
*269 FILLER_4_179
*270 FILLER_4_19
*271 FILLER_4_191
*272 FILLER_4_195
*273 FILLER_4_197
*274 FILLER_4_205
*275 FILLER_4_211
*276 FILLER_4_223
*277 FILLER_4_235
*278 FILLER_4_247
*279 FILLER_4_251
*280 FILLER_4_253
*281 FILLER_4_265
*282 FILLER_4_27
*283 FILLER_4_277
*284 FILLER_4_285
*285 FILLER_4_29
*286 FILLER_4_33
*287 FILLER_4_42
*288 FILLER_4_54
*289 FILLER_4_7
*290 FILLER_4_75
*291 FILLER_4_83
*292 FILLER_4_85
*293 FILLER_4_93
*294 FILLER_5_111
*295 FILLER_5_133
*296 FILLER_5_156
*297 FILLER_5_179
*298 FILLER_5_187
*299 FILLER_5_19
*300 FILLER_5_199
*301 FILLER_5_207
*302 FILLER_5_221
*303 FILLER_5_225
*304 FILLER_5_23
*305 FILLER_5_237
*306 FILLER_5_249
*307 FILLER_5_261
*308 FILLER_5_273
*309 FILLER_5_279
*310 FILLER_5_281
*311 FILLER_5_287
*312 FILLER_5_48
*313 FILLER_5_57
*314 FILLER_5_69
*315 FILLER_5_7
*316 FILLER_5_77
*317 FILLER_5_99
*318 FILLER_6_100
*319 FILLER_6_112
*320 FILLER_6_124
*321 FILLER_6_136
*322 FILLER_6_141
*323 FILLER_6_162
*324 FILLER_6_175
*325 FILLER_6_180
*326 FILLER_6_192
*327 FILLER_6_197
*328 FILLER_6_233
*329 FILLER_6_245
*330 FILLER_6_25
*331 FILLER_6_251
*332 FILLER_6_253
*333 FILLER_6_265
*334 FILLER_6_277
*335 FILLER_6_285
*336 FILLER_6_29
*337 FILLER_6_52
*338 FILLER_6_56
*339 FILLER_6_7
*340 FILLER_6_81
*341 FILLER_6_85
*342 FILLER_6_93
*343 FILLER_7_111
*344 FILLER_7_117
*345 FILLER_7_129
*346 FILLER_7_144
*347 FILLER_7_156
*348 FILLER_7_162
*349 FILLER_7_169
*350 FILLER_7_181
*351 FILLER_7_196
*352 FILLER_7_20
*353 FILLER_7_206
*354 FILLER_7_218
*355 FILLER_7_225
*356 FILLER_7_237
*357 FILLER_7_249
*358 FILLER_7_261
*359 FILLER_7_273
*360 FILLER_7_279
*361 FILLER_7_281
*362 FILLER_7_287
*363 FILLER_7_3
*364 FILLER_7_46
*365 FILLER_7_50
*366 FILLER_7_81
*367 FILLER_7_93
*368 FILLER_8_113
*369 FILLER_8_121
*370 FILLER_8_138
*371 FILLER_8_144
*372 FILLER_8_169
*373 FILLER_8_189
*374 FILLER_8_195
*375 FILLER_8_197
*376 FILLER_8_21
*377 FILLER_8_223
*378 FILLER_8_227
*379 FILLER_8_239
*380 FILLER_8_251
*381 FILLER_8_253
*382 FILLER_8_265
*383 FILLER_8_273
*384 FILLER_8_279
*385 FILLER_8_287
*386 FILLER_8_45
*387 FILLER_8_7
*388 FILLER_9_102
*389 FILLER_9_110
*390 FILLER_9_113
*391 FILLER_9_121
*392 FILLER_9_133
*393 FILLER_9_141
*394 FILLER_9_15
*395 FILLER_9_153
*396 FILLER_9_159
*397 FILLER_9_167
*398 FILLER_9_169
*399 FILLER_9_173
*400 FILLER_9_178
*401 FILLER_9_190
*402 FILLER_9_201
*403 FILLER_9_209
*404 FILLER_9_21
*405 FILLER_9_216
*406 FILLER_9_225
*407 FILLER_9_235
*408 FILLER_9_247
*409 FILLER_9_251
*410 FILLER_9_257
*411 FILLER_9_26
*412 FILLER_9_273
*413 FILLER_9_279
*414 FILLER_9_29
*415 FILLER_9_45
*416 FILLER_9_53
*417 FILLER_9_57
*418 FILLER_9_64
*419 FILLER_9_70
*420 FILLER_9_76
*421 FILLER_9_83
*422 FILLER_9_85
*423 FILLER_9_97
*424 PHY_EDGE_ROW_0_Left_10
*425 PHY_EDGE_ROW_0_Right_0
*426 PHY_EDGE_ROW_1_Left_11
*427 PHY_EDGE_ROW_1_Right_1
*428 PHY_EDGE_ROW_2_Left_12
*429 PHY_EDGE_ROW_2_Right_2
*430 PHY_EDGE_ROW_3_Left_13
*431 PHY_EDGE_ROW_3_Right_3
*432 PHY_EDGE_ROW_4_Left_14
*433 PHY_EDGE_ROW_4_Right_4
*434 PHY_EDGE_ROW_5_Left_15
*435 PHY_EDGE_ROW_5_Right_5
*436 PHY_EDGE_ROW_6_Left_16
*437 PHY_EDGE_ROW_6_Right_6
*438 PHY_EDGE_ROW_7_Left_17
*439 PHY_EDGE_ROW_7_Right_7
*440 PHY_EDGE_ROW_8_Left_18
*441 PHY_EDGE_ROW_8_Right_8
*442 PHY_EDGE_ROW_9_Left_19
*443 PHY_EDGE_ROW_9_Right_9
*444 TAP_TAPCELL_ROW_0_20
*445 TAP_TAPCELL_ROW_0_21
*446 TAP_TAPCELL_ROW_0_22
*447 TAP_TAPCELL_ROW_0_23
*448 TAP_TAPCELL_ROW_0_24
*449 TAP_TAPCELL_ROW_0_25
*450 TAP_TAPCELL_ROW_0_26
*451 TAP_TAPCELL_ROW_0_27
*452 TAP_TAPCELL_ROW_0_28
*453 TAP_TAPCELL_ROW_0_29
*454 TAP_TAPCELL_ROW_1_30
*455 TAP_TAPCELL_ROW_1_31
*456 TAP_TAPCELL_ROW_1_32
*457 TAP_TAPCELL_ROW_1_33
*458 TAP_TAPCELL_ROW_1_34
*459 TAP_TAPCELL_ROW_2_35
*460 TAP_TAPCELL_ROW_2_36
*461 TAP_TAPCELL_ROW_2_37
*462 TAP_TAPCELL_ROW_2_38
*463 TAP_TAPCELL_ROW_2_39
*464 TAP_TAPCELL_ROW_3_40
*465 TAP_TAPCELL_ROW_3_41
*466 TAP_TAPCELL_ROW_3_42
*467 TAP_TAPCELL_ROW_3_43
*468 TAP_TAPCELL_ROW_3_44
*469 TAP_TAPCELL_ROW_4_45
*470 TAP_TAPCELL_ROW_4_46
*471 TAP_TAPCELL_ROW_4_47
*472 TAP_TAPCELL_ROW_4_48
*473 TAP_TAPCELL_ROW_4_49
*474 TAP_TAPCELL_ROW_5_50
*475 TAP_TAPCELL_ROW_5_51
*476 TAP_TAPCELL_ROW_5_52
*477 TAP_TAPCELL_ROW_5_53
*478 TAP_TAPCELL_ROW_5_54
*479 TAP_TAPCELL_ROW_6_55
*480 TAP_TAPCELL_ROW_6_56
*481 TAP_TAPCELL_ROW_6_57
*482 TAP_TAPCELL_ROW_6_58
*483 TAP_TAPCELL_ROW_6_59
*484 TAP_TAPCELL_ROW_7_60
*485 TAP_TAPCELL_ROW_7_61
*486 TAP_TAPCELL_ROW_7_62
*487 TAP_TAPCELL_ROW_7_63
*488 TAP_TAPCELL_ROW_7_64
*489 TAP_TAPCELL_ROW_8_65
*490 TAP_TAPCELL_ROW_8_66
*491 TAP_TAPCELL_ROW_8_67
*492 TAP_TAPCELL_ROW_8_68
*493 TAP_TAPCELL_ROW_8_69
*494 TAP_TAPCELL_ROW_9_70
*495 TAP_TAPCELL_ROW_9_71
*496 TAP_TAPCELL_ROW_9_72
*497 TAP_TAPCELL_ROW_9_73
*498 TAP_TAPCELL_ROW_9_74
*499 TAP_TAPCELL_ROW_9_75
*500 TAP_TAPCELL_ROW_9_76
*501 TAP_TAPCELL_ROW_9_77
*502 TAP_TAPCELL_ROW_9_78
*503 TAP_TAPCELL_ROW_9_79
*504 _072_
*505 _073_
*506 _074_
*507 _075_
*508 _076_
*509 _077_
*510 _078_
*511 _079_
*512 _080_
*513 _081_
*514 _082_
*515 _083__1
*516 _084_
*517 _085_
*518 _086_
*519 _087_
*520 _088_
*521 _089_
*522 _090_
*523 _091_
*524 _092_
*525 _093_
*526 _094_
*527 _095_
*528 _096_
*529 _097_
*530 _098_
*531 _099_
*532 _100_
*533 _101_
*534 _102_
*535 _103_
*536 _104_
*537 _105_
*538 _106_
*539 _107_
*540 _108_
*541 _109_
*542 _110_
*543 _111_
*544 _112_
*545 _113_
*546 _114_
*547 _115_
*548 _116_
*549 _117_
*550 _118_
*551 _119_
*552 _120_
*553 _121_
*554 _122_
*555 _123_
*556 _124_
*557 _125_
*558 _126_
*559 _127_
*560 _128_
*561 _129_
*562 _130_
*563 _131_
*564 _132_
*565 _133_
*566 _134_
*567 _135_
*568 _136_
*569 _137_
*570 _138_
*571 _139_
*572 _140_
*573 _141_
*574 _142_
*575 _143_
*576 _144_
*577 _145_
*578 _146_
*579 _147_
*580 _148_
*581 _149_
*582 _150_
*583 _151_
*584 _152_
*585 _153_
*586 _154_
*587 _155_
*588 _156_
*589 _157_
*590 _158_
*591 _159_
*592 _160_
*593 _161_
*594 _162_
*595 _163_
*596 _164_
*597 _165_
*598 _166_
*599 _167_
*600 _168_
*601 _169_
*602 _170_
*603 _171_
*604 _172_
*605 clkbuf_0_clk
*606 clkbuf_1_0__f_clk
*607 clkbuf_1_1__f_clk
*608 clkload0
*609 fanout28
*610 fanout30
*611 fanout31
*612 fanout32
*613 fanout33
*614 fanout34
*615 hold1
*616 hold10
*617 hold11
*618 hold12
*619 hold2
*620 hold3
*621 hold4
*622 hold5
*623 hold6
*624 hold7
*625 hold8
*626 hold9
*627 input1
*628 input2
*629 output10
*630 output11
*631 output12
*632 output13
*633 output14
*634 output15
*635 output16
*636 output17
*637 output18
*638 output19
*639 output20
*640 output21
*641 output22
*642 output23
*643 output24
*644 output25
*645 output26
*646 output27
*647 output3
*648 output4
*649 output5
*650 output6
*651 output7
*652 output8
*653 output9
*654 wire29

*PORTS
adc_out[0] O
adc_out[1] O
adc_out[2] O
adc_out[3] O
adc_out[4] O
adc_out[5] O
adc_out[6] O
adc_out[7] O
clk I
comp I
comparator_clk O
dac_in[0] O
dac_in[1] O
dac_in[2] O
dac_in[3] O
dac_in[4] O
dac_in[5] O
dac_in[6] O
dac_in[7] O
dac_in_n[0] O
dac_in_n[1] O
dac_in_n[2] O
dac_in_n[3] O
dac_in_n[4] O
dac_in_n[5] O
dac_in_n[6] O
dac_in_n[7] O
rst_n I

*D_NET *3 0.000931261
*CONN
*P adc_out[0] O
*I *647:X O *D sky130_fd_sc_hd__buf_2
*CAP
1 adc_out[0] 0.000436944
2 *647:X 0.000436944
3 adc_out[0] adc_out[1] 5.73739e-05
4 adc_out[0] *628:A 0
*RES
1 *647:X adc_out[0] 8.5985 
*END

*D_NET *4 0.000920848
*CONN
*P adc_out[1] O
*I *648:X O *D sky130_fd_sc_hd__buf_2
*CAP
1 adc_out[1] 0.000431737
2 *648:X 0.000431737
3 adc_out[1] adc_out[2] 0
4 adc_out[1] *648:A 0
5 adc_out[0] adc_out[1] 5.73739e-05
*RES
1 *648:X adc_out[1] 7.92003 
*END

*D_NET *5 0.000720436
*CONN
*P adc_out[2] O
*I *649:X O *D sky130_fd_sc_hd__buf_2
*CAP
1 adc_out[2] 0.000360218
2 *649:X 0.000360218
3 adc_out[2] adc_out[3] 0
4 adc_out[1] adc_out[2] 0
*RES
1 *649:X adc_out[2] 7.53697 
*END

*D_NET *6 0.000750871
*CONN
*P adc_out[3] O
*I *650:X O *D sky130_fd_sc_hd__buf_2
*CAP
1 adc_out[3] 0.000375435
2 *650:X 0.000375435
3 adc_out[3] adc_out[4] 0
4 adc_out[2] adc_out[3] 0
*RES
1 *650:X adc_out[3] 7.79197 
*END

*D_NET *7 0.000791174
*CONN
*P adc_out[4] O
*I *651:X O *D sky130_fd_sc_hd__buf_2
*CAP
1 adc_out[4] 0.000395587
2 *651:X 0.000395587
3 adc_out[4] adc_out[5] 0
4 adc_out[4] *621:A 0
5 adc_out[3] adc_out[4] 0
*RES
1 *651:X adc_out[4] 7.18677 
*END

*D_NET *8 0.0016357
*CONN
*P adc_out[5] O
*I *652:X O *D sky130_fd_sc_hd__buf_2
*CAP
1 adc_out[5] 0.000585286
2 *652:X 0.000585286
3 adc_out[5] adc_out[6] 0.000101322
4 adc_out[5] adc_out[7] 0.000275548
5 adc_out[5] *638:A 8.82557e-05
6 adc_out[4] adc_out[5] 0
*RES
1 *652:X adc_out[5] 10.38 
*END

*D_NET *9 0.00129734
*CONN
*P adc_out[6] O
*I *653:X O *D sky130_fd_sc_hd__buf_2
*CAP
1 adc_out[6] 0.000542577
2 *653:X 0.000542577
3 adc_out[6] adc_out[7] 5.1877e-05
4 adc_out[6] dac_in[7] 5.89925e-05
5 adc_out[6] *621:A 0
6 adc_out[6] *629:A 0
7 adc_out[5] adc_out[6] 0.000101322
*RES
1 *653:X adc_out[6] 9.64157 
*END

*D_NET *10 0.0017652
*CONN
*P adc_out[7] O
*I *629:X O *D sky130_fd_sc_hd__buf_2
*CAP
1 adc_out[7] 0.000488128
2 *629:X 0.000488128
3 adc_out[7] dac_in[7] 0.000373252
4 adc_out[7] *638:A 8.8266e-05
5 adc_out[5] adc_out[7] 0.000275548
6 adc_out[6] adc_out[7] 5.1877e-05
*RES
1 *629:X adc_out[7] 12.36 
*END

*D_NET *11 0.00717288
*CONN
*P clk I
*I *605:A I *D sky130_fd_sc_hd__clkbuf_16
*CAP
1 clk 0.00333858
2 *605:A 0.00333858
3 *605:A *569:A2 0.000159964
4 *605:A *576:B 0
5 *605:A *628:A 0
6 *605:A *89:22 3.47837e-05
7 *605:A *107:83 0.000186559
8 *605:A *111:8 0
9 *605:A *132:84 0
10 *605:A *133:56 4.05454e-05
11 *605:A *133:74 7.38635e-05
*RES
1 clk *605:A 26.5342 
*END

*D_NET *12 0.000849765
*CONN
*P comp I
*I *627:A I *D sky130_fd_sc_hd__buf_1
*CAP
1 comp 0.000420525
2 *627:A 0.000366312
3 *12:22 5.42129e-05
4 *627:A *639:A 8.7152e-06
*RES
1 comp *627:A 5.33317 
2 comp *12:22 0.195067 
*END

*D_NET *13 0.000813873
*CONN
*P comparator_clk O
*I *630:X O *D sky130_fd_sc_hd__buf_2
*CAP
1 comparator_clk 0.000406937
2 *630:X 0.000406937
*RES
1 *630:X comparator_clk 5.40663 
*END

*D_NET *14 0.0010246
*CONN
*P dac_in[0] O
*I *631:X O *D sky130_fd_sc_hd__buf_2
*CAP
1 dac_in[0] 0.000512299
2 *631:X 0.000512299
*RES
1 *631:X dac_in[0] 12.735 
*END

*D_NET *15 0.0010626
*CONN
*P dac_in[1] O
*I *632:X O *D sky130_fd_sc_hd__buf_2
*CAP
1 dac_in[1] 0.000531302
2 *632:X 0.000531302
*RES
1 *632:X dac_in[1] 13.08 
*END

*D_NET *16 0.0013551
*CONN
*P dac_in[2] O
*I *633:X O *D sky130_fd_sc_hd__buf_2
*CAP
1 dac_in[2] 0.000674634
2 *633:X 0.000674634
3 dac_in[2] *641:A 5.83121e-06
*RES
1 *633:X dac_in[2] 14.565 
*END

*D_NET *17 0.0010246
*CONN
*P dac_in[3] O
*I *634:X O *D sky130_fd_sc_hd__buf_2
*CAP
1 dac_in[3] 0.000512299
2 *634:X 0.000512299
*RES
1 *634:X dac_in[3] 12.735 
*END

*D_NET *18 0.0010246
*CONN
*P dac_in[4] O
*I *635:X O *D sky130_fd_sc_hd__buf_2
*CAP
1 dac_in[4] 0.000512299
2 *635:X 0.000512299
*RES
1 *635:X dac_in[4] 12.735 
*END

*D_NET *19 0.0010246
*CONN
*P dac_in[5] O
*I *636:X O *D sky130_fd_sc_hd__buf_2
*CAP
1 dac_in[5] 0.000512299
2 *636:X 0.000512299
*RES
1 *636:X dac_in[5] 12.735 
*END

*D_NET *20 0.00127894
*CONN
*P dac_in[6] O
*I *637:X O *D sky130_fd_sc_hd__buf_2
*CAP
1 dac_in[6] 0.000577233
2 *637:X 0.000577233
3 dac_in[6] *652:A 0.000124471
*RES
1 *637:X dac_in[6] 13.53 
*END

*D_NET *21 0.00143413
*CONN
*P dac_in[7] O
*I *638:X O *D sky130_fd_sc_hd__buf_2
*CAP
1 dac_in[7] 0.000500945
2 *638:X 0.000500945
3 adc_out[6] dac_in[7] 5.89925e-05
4 adc_out[7] dac_in[7] 0.000373252
*RES
1 *638:X dac_in[7] 13.53 
*END

*D_NET *22 0.000986593
*CONN
*P dac_in_n[0] O
*I *639:X O *D sky130_fd_sc_hd__buf_2
*CAP
1 dac_in_n[0] 0.000493296
2 *639:X 0.000493296
*RES
1 *639:X dac_in_n[0] 12.39 
*END

*D_NET *23 0.00125497
*CONN
*P dac_in_n[1] O
*I *640:X O *D sky130_fd_sc_hd__buf_2
*CAP
1 dac_in_n[1] 0.000625022
2 *640:X 0.000625022
3 dac_in_n[1] *640:A 4.9253e-06
*RES
1 *640:X dac_in_n[1] 14.22 
*END

*D_NET *24 0.00114263
*CONN
*P dac_in_n[2] O
*I *641:X O *D sky130_fd_sc_hd__buf_2
*CAP
1 dac_in_n[2] 0.000567808
2 *641:X 0.000567808
3 dac_in_n[2] *641:A 7.00889e-06
*RES
1 *641:X dac_in_n[2] 13.185 
*END

*D_NET *25 0.0010626
*CONN
*P dac_in_n[3] O
*I *642:X O *D sky130_fd_sc_hd__buf_2
*CAP
1 dac_in_n[3] 0.000531302
2 *642:X 0.000531302
*RES
1 *642:X dac_in_n[3] 13.08 
*END

*D_NET *26 0.0010246
*CONN
*P dac_in_n[4] O
*I *643:X O *D sky130_fd_sc_hd__buf_2
*CAP
1 dac_in_n[4] 0.000512299
2 *643:X 0.000512299
*RES
1 *643:X dac_in_n[4] 12.735 
*END

*D_NET *27 0.0010246
*CONN
*P dac_in_n[5] O
*I *644:X O *D sky130_fd_sc_hd__buf_2
*CAP
1 dac_in_n[5] 0.000512299
2 *644:X 0.000512299
*RES
1 *644:X dac_in_n[5] 12.735 
*END

*D_NET *28 0.0010626
*CONN
*P dac_in_n[6] O
*I *645:X O *D sky130_fd_sc_hd__buf_2
*CAP
1 dac_in_n[6] 0.000531302
2 *645:X 0.000531302
*RES
1 *645:X dac_in_n[6] 13.08 
*END

*D_NET *29 0.0010246
*CONN
*P dac_in_n[7] O
*I *646:X O *D sky130_fd_sc_hd__buf_2
*CAP
1 dac_in_n[7] 0.000512299
2 *646:X 0.000512299
*RES
1 *646:X dac_in_n[7] 12.735 
*END

*D_NET *30 0.000771592
*CONN
*P rst_n I
*I *628:A I *D sky130_fd_sc_hd__buf_1
*CAP
1 rst_n 0.000385796
2 *628:A 0.000385796
3 adc_out[0] *628:A 0
4 *605:A *628:A 0
*RES
1 rst_n *628:A 9.8689 
*END

*D_NET *31 0.000465561
*CONN
*I *584:D I *D sky130_fd_sc_hd__dfxtp_1
*I *516:X O *D sky130_fd_sc_hd__and2b_1
*CAP
1 *584:D 0.000139094
2 *516:X 0.000139094
3 *584:D *516:A_N 0
4 *584:D *516:B 0.000139238
5 *584:D *114:34 4.81347e-05
*RES
1 *516:X *584:D 10.0087 
*END

*D_NET *32 0.000463107
*CONN
*I *585:D I *D sky130_fd_sc_hd__dfxtp_1
*I *520:X O *D sky130_fd_sc_hd__o211a_1
*CAP
1 *585:D 0.000120693
2 *520:X 0.000120693
3 *585:D *585:CLK 0.00022172
*RES
1 *520:X *585:D 9.75375 
*END

*D_NET *33 0.00024065
*CONN
*I *586:D I *D sky130_fd_sc_hd__dfxtp_1
*I *522:X O *D sky130_fd_sc_hd__o211a_1
*CAP
1 *586:D 0.000120325
2 *522:X 0.000120325
3 *586:D *522:A2 0
*RES
1 *522:X *586:D 4.97 
*END

*D_NET *34 0.00054797
*CONN
*I *587:D I *D sky130_fd_sc_hd__dfxtp_1
*I *524:X O *D sky130_fd_sc_hd__o211a_1
*CAP
1 *587:D 0.000225115
2 *524:X 0.000225115
3 *587:D *524:B1 0
4 *587:D *536:A 9.77408e-05
*RES
1 *524:X *587:D 11.0437 
*END

*D_NET *35 0.000399643
*CONN
*I *588:D I *D sky130_fd_sc_hd__dfxtp_1
*I *526:X O *D sky130_fd_sc_hd__o211a_1
*CAP
1 *588:D 0.000180094
2 *526:X 0.000180094
3 *588:D *532:B1 7.70553e-06
4 *588:D *649:A 2.69272e-05
5 *588:D *650:A 4.82319e-06
6 *588:D *130:33 0
*RES
1 *526:X *588:D 9.76875 
*END

*D_NET *36 0.00146514
*CONN
*I *617:A I *D sky130_fd_sc_hd__dlygate4sd3_1
*I *528:X O *D sky130_fd_sc_hd__o211a_1
*CAP
1 *617:A 0.000462014
2 *528:X 0.000462014
3 *617:A *508:A 0
4 *617:A *528:A1 0.000143782
5 *617:A *529:B 0
6 *617:A *530:B1 0.000139238
7 *617:A *590:D 4.82863e-05
8 *617:A *619:A 4.66108e-05
9 *617:A *636:A 0
10 *617:A *80:62 0.000163199
*RES
1 *528:X *617:A 15.12 
*END

*D_NET *37 0.000592811
*CONN
*I *619:A I *D sky130_fd_sc_hd__dlygate4sd3_1
*I *530:X O *D sky130_fd_sc_hd__o211a_1
*CAP
1 *619:A 8.18077e-05
2 *530:X 8.18077e-05
3 *619:A *528:A1 4.66108e-05
4 *619:A *529:B 0.000203762
5 *619:A *80:62 7.89034e-05
6 *619:A *103:71 5.33085e-05
7 *617:A *619:A 4.66108e-05
*RES
1 *530:X *619:A 10.05 
*END

*D_NET *38 0.000530079
*CONN
*I *591:D I *D sky130_fd_sc_hd__dfxtp_1
*I *532:X O *D sky130_fd_sc_hd__o211a_1
*CAP
1 *591:D 9.08059e-05
2 *532:X 9.08059e-05
3 *591:D *532:A1 9.03081e-05
4 *591:D *591:CLK 0.000111315
5 *591:D *136:64 0.000146845
*RES
1 *532:X *591:D 9.69375 
*END

*D_NET *39 0.000873284
*CONN
*I *621:A I *D sky130_fd_sc_hd__dlygate4sd3_1
*I *534:X O *D sky130_fd_sc_hd__o211a_1
*CAP
1 *621:A 0.000235109
2 *534:X 0.000235109
3 *621:A *533:B 0.00012794
4 *621:A *534:B1 0
5 *621:A *629:A 2.14129e-05
6 *621:A *653:A 0.000160635
7 *621:A *110:10 9.30787e-05
8 adc_out[4] *621:A 0
9 adc_out[6] *621:A 0
*RES
1 *534:X *621:A 12.105 
*END

*D_NET *40 0.000975667
*CONN
*I *593:D I *D sky130_fd_sc_hd__dfxtp_2
*I *547:X O *D sky130_fd_sc_hd__o21a_1
*CAP
1 *593:D 0.000219329
2 *547:X 0.000219329
3 *593:D *543:A1 5.30673e-05
4 *593:D *547:A1 4.99619e-05
5 *593:D *547:B1 8.8266e-05
6 *593:D *95:12 8.3067e-05
7 *593:D *112:10 0.000262646
*RES
1 *547:X *593:D 8.36375 
*END

*D_NET *41 0.000976973
*CONN
*I *594:D I *D sky130_fd_sc_hd__dfxtp_1
*I *552:Y O *D sky130_fd_sc_hd__a31oi_1
*CAP
1 *594:D 0.000344427
2 *552:Y 0.000344427
3 *594:D *548:B1 7.36892e-05
4 *594:D *604:CLK 9.37731e-05
5 *594:D *94:33 0.000120655
*RES
1 *552:Y *594:D 11.8687 
*END

*D_NET *42 0.000599353
*CONN
*I *595:D I *D sky130_fd_sc_hd__dfxtp_1
*I *557:X O *D sky130_fd_sc_hd__o31a_1
*CAP
1 *595:D 0.000225987
2 *557:X 0.000225987
3 *595:D *558:B1 0
4 *595:D *99:69 7.36892e-05
5 *595:D *104:94 7.36892e-05
6 *595:D *109:22 0
7 *595:D *115:20 0
*RES
1 *557:X *595:D 11.0437 
*END

*D_NET *43 0.000417265
*CONN
*I *596:D I *D sky130_fd_sc_hd__dfxtp_1
*I *561:X O *D sky130_fd_sc_hd__o21a_1
*CAP
1 *596:D 9.66391e-05
2 *561:X 9.66391e-05
3 *596:D *564:B1 0
4 *596:D *643:A 0
5 *596:D *99:69 0.000111993
6 *596:D *104:86 0.000111993
*RES
1 *561:X *596:D 9.34875 
*END

*D_NET *44 0.00118656
*CONN
*I *597:D I *D sky130_fd_sc_hd__dfxtp_1
*I *565:Y O *D sky130_fd_sc_hd__a31oi_1
*CAP
1 *597:D 0.000202694
2 *565:Y 0.000202694
3 *597:D *509:A 1.43717e-05
4 *597:D *564:A1 0.000238137
5 *597:D *564:B1 8.34281e-06
6 *597:D *565:A1 8.40269e-05
7 *597:D *60:49 5.33085e-05
8 *597:D *90:42 0.000311277
9 *597:D *99:69 7.17078e-05
10 *597:D *104:69 0
*RES
1 *565:Y *597:D 12.6938 
*END

*D_NET *45 0.00107598
*CONN
*I *598:D I *D sky130_fd_sc_hd__dfxtp_1
*I *569:Y O *D sky130_fd_sc_hd__a31oi_1
*CAP
1 *598:D 0.000145242
2 *569:Y 0.000145242
3 *598:D *528:A1 0.000147723
4 *598:D *574:A2 0
5 *598:D *574:B1 0.000313215
6 *598:D *575:B1 0.000115464
7 *598:D *598:CLK 0.000111988
8 *598:D *60:23 0
9 *598:D *90:21 9.71067e-05
*RES
1 *569:Y *598:D 12.0787 
*END

*D_NET *46 0.000654459
*CONN
*I *599:D I *D sky130_fd_sc_hd__dfxtp_1
*I *573:X O *D sky130_fd_sc_hd__o31a_1
*CAP
1 *599:D 0.000124859
2 *573:X 0.000124859
3 *599:D *515:A 2.45662e-05
4 *599:D *536:A 0.000218581
5 *599:D *598:CLK 5.21046e-05
6 *599:D *599:CLK 3.1226e-05
7 *599:D *103:23 7.82635e-05
*RES
1 *573:X *599:D 10.71 
*END

*D_NET *47 0.0045537
*CONN
*I *600:D I *D sky130_fd_sc_hd__dfxtp_1
*I *575:X O *D sky130_fd_sc_hd__a211o_1
*CAP
1 *600:D 0.00145496
2 *575:X 0.00145496
3 *600:D *527:B 4.82863e-05
4 *600:D *532:A1 0.000161985
5 *600:D *575:A2 3.64998e-06
6 *600:D *590:D 6.50844e-06
7 *600:D *600:CLK 9.13949e-06
8 *600:D *80:44 0.000450338
9 *600:D *80:62 0.000137462
10 *600:D *80:124 0.000234973
11 *600:D *103:80 0.000488959
12 *600:D *103:82 0.000100289
13 *600:D *126:6 2.19562e-06
*RES
1 *575:X *600:D 26.495 
*END

*D_NET *48 0.000347855
*CONN
*I *601:D I *D sky130_fd_sc_hd__dfxtp_1
*I *577:X O *D sky130_fd_sc_hd__and3_1
*CAP
1 *601:D 0.000139344
2 *577:X 0.000139344
3 *601:D *576:A 0
4 *601:D *577:C 0
5 *601:D *601:CLK 1.43717e-05
6 *601:D *89:29 4.82863e-05
7 *601:D *114:34 6.50844e-06
*RES
1 *577:X *601:D 9.16875 
*END

*D_NET *49 0.000483577
*CONN
*I *602:D I *D sky130_fd_sc_hd__dfxtp_1
*I *579:X O *D sky130_fd_sc_hd__and3_1
*CAP
1 *602:D 0.000127272
2 *579:X 0.000127272
3 *602:D *579:C 4.19967e-05
4 *602:D *89:65 4.82919e-05
5 *602:D *104:34 7.82691e-05
6 *602:D *105:10 2.67022e-05
7 *602:D *114:34 3.37735e-05
*RES
1 *579:X *602:D 9.75 
*END

*D_NET *50 0.000463483
*CONN
*I *603:D I *D sky130_fd_sc_hd__dfxtp_2
*I *581:X O *D sky130_fd_sc_hd__and3_1
*CAP
1 *603:D 0.00017885
2 *581:X 0.00017885
3 *603:D *547:B1 2.75145e-05
4 *603:D *593:CLK 7.82691e-05
*RES
1 *581:X *603:D 9.75 
*END

*D_NET *51 0.000468839
*CONN
*I *604:D I *D sky130_fd_sc_hd__dfxtp_1
*I *583:Y O *D sky130_fd_sc_hd__a21oi_1
*CAP
1 *604:D 0.000136239
2 *583:Y 0.000136239
3 *604:D *542:B 0
4 *604:D *583:A2 1.65105e-05
5 *604:D *583:B1 0.000164157
6 *604:D *94:25 0
7 *604:D *109:12 1.5693e-05
*RES
1 *583:Y *604:D 9.82875 
*END

*D_NET *52 0.0013792
*CONN
*I *556:C I *D sky130_fd_sc_hd__and4bb_1
*I *572:B1 I *D sky130_fd_sc_hd__o211a_1
*I *549:X O *D sky130_fd_sc_hd__and4bb_1
*CAP
1 *556:C 0.000149517
2 *572:B1 9.73191e-06
3 *549:X 9.15161e-05
4 *52:10 0.000250765
5 *556:C *556:B_N 0.000114255
6 *556:C *78:29 8.53113e-06
7 *556:C *78:48 0.000218475
8 *556:C *107:55 7.25532e-05
9 *556:C *109:22 0.000197269
10 *572:B1 *572:A1 4.82863e-05
11 *572:B1 *132:54 4.82863e-05
12 *52:10 *556:B_N 5.53249e-06
13 *52:10 *78:29 5.16348e-05
14 *52:10 *98:10 6.28843e-05
15 *52:10 *114:34 0
16 *52:10 *133:24 4.99619e-05
*RES
1 *549:X *52:10 5.43 
2 *52:10 *572:B1 4.05 
3 *52:10 *556:C 8.265 
*END

*D_NET *53 0.00158061
*CONN
*I *552:A2 I *D sky130_fd_sc_hd__a31oi_1
*I *550:X O *D sky130_fd_sc_hd__or4_1
*CAP
1 *552:A2 0.000505115
2 *550:X 0.000505115
3 *552:A2 *514:A 0
4 *552:A2 *549:A_N 0.00046618
5 *552:A2 *552:A1 1.72991e-05
6 *552:A2 *583:B1 8.69039e-05
7 *552:A2 *78:12 0
8 *552:A2 *94:25 0
*RES
1 *550:X *552:A2 15.12 
*END

*D_NET *54 0.000470292
*CONN
*I *552:A3 I *D sky130_fd_sc_hd__a31oi_1
*I *551:Y O *D sky130_fd_sc_hd__nand3_1
*CAP
1 *552:A3 8.19128e-05
2 *551:Y 8.19128e-05
3 *552:A3 *551:A 0.00020506
4 *552:A3 *552:A1 4.99619e-05
5 *552:A3 *94:33 5.14448e-05
*RES
1 *551:Y *552:A3 5.645 
*END

*D_NET *55 0.000655756
*CONN
*I *557:A1 I *D sky130_fd_sc_hd__o31a_1
*I *553:X O *D sky130_fd_sc_hd__o41a_1
*CAP
1 *557:A1 0.00021496
2 *553:X 0.00021496
3 *557:A1 *557:A3 0
4 *557:A1 *562:A 9.60047e-05
5 *557:A1 *572:A1 5.30673e-05
6 *557:A1 *78:48 3.47668e-05
7 *557:A1 *115:20 0
8 *557:A1 *133:10 0
9 *557:A1 *133:14 3.90266e-05
10 *557:A1 *133:24 2.97004e-06
*RES
1 *553:X *557:A1 11.415 
*END

*D_NET *56 0.00637972
*CONN
*I *558:A2 I *D sky130_fd_sc_hd__a21oi_1
*I *560:A3 I *D sky130_fd_sc_hd__a32o_1
*I *555:B I *D sky130_fd_sc_hd__and2_1
*I *571:A I *D sky130_fd_sc_hd__and2_1
*I *574:A1 I *D sky130_fd_sc_hd__a21oi_1
*I *554:Y O *D sky130_fd_sc_hd__nor3b_2
*CAP
1 *558:A2 0.000137155
2 *560:A3 0
3 *555:B 0.00014277
4 *571:A 0
5 *574:A1 0.000146511
6 *554:Y 0.000333905
7 *56:38 0.000171474
8 *56:34 0.000436752
9 *56:14 0.000687728
10 *56:10 0.00114602
11 *555:B *557:B1 0.000118413
12 *555:B *560:A2 0.00021078
13 *555:B *562:A 0.00015182
14 *555:B *562:C_N 0.000121521
15 *555:B *565:A1 0.000215438
16 *558:A2 *557:B1 0.000179558
17 *558:A2 *561:A1 0.000108785
18 *558:A2 *565:A1 0.000163471
19 *558:A2 *89:37 0.000109995
20 *574:A1 *574:A2 0.000138551
21 *574:A1 *60:23 0.000182342
22 *574:A1 *78:56 9.70985e-05
23 *56:10 *564:A1 1.70935e-05
24 *56:10 *60:49 0
25 *56:10 *99:10 0
26 *56:10 *104:10 5.43199e-05
27 *56:10 *104:14 4.61658e-05
28 *56:10 *104:69 8.99482e-05
29 *56:14 *60:12 0.000346062
30 *56:14 *60:43 0.000159313
31 *56:14 *60:74 0.000117116
32 *56:34 *560:B2 8.65961e-05
33 *56:34 *562:C_N 0.000128834
34 *56:34 *564:A1 0.000197264
35 *56:34 *60:74 7.67616e-05
36 *56:38 *562:B 0
37 *56:38 *565:A1 8.53113e-06
38 *56:38 *89:37 5.16348e-05
*RES
1 *554:Y *56:10 11.825 
2 *56:10 *56:14 9.78 
3 *56:14 *574:A1 9.275 
4 *56:14 *571:A 1.6 
5 *56:10 *56:34 6.935 
6 *56:34 *56:38 2.615 
7 *56:38 *555:B 7.63 
8 *56:38 *560:A3 1.6 
9 *56:34 *558:A2 7.875 
*END

*D_NET *57 0.000282208
*CONN
*I *557:A2 I *D sky130_fd_sc_hd__o31a_1
*I *555:X O *D sky130_fd_sc_hd__and2_1
*CAP
1 *557:A2 6.17371e-05
2 *555:X 6.17371e-05
3 *557:A2 *557:A3 4.99619e-05
4 *557:A2 *557:B1 8.8266e-05
5 *557:A2 *562:A 2.05056e-05
*RES
1 *555:X *557:A2 4.685 
*END

*D_NET *58 0.000890622
*CONN
*I *557:A3 I *D sky130_fd_sc_hd__o31a_1
*I *556:X O *D sky130_fd_sc_hd__and4bb_1
*CAP
1 *557:A3 0.000282412
2 *556:X 0.000282412
3 *557:A3 *549:A_N 3.09164e-05
4 *557:A3 *611:A 0.000161623
5 *557:A3 *109:22 2.4997e-05
6 *557:A3 *133:10 5.82992e-05
7 *557:A1 *557:A3 0
8 *557:A2 *557:A3 4.99619e-05
*RES
1 *556:X *557:A3 12.465 
*END

*D_NET *59 0.000434062
*CONN
*I *561:A1 I *D sky130_fd_sc_hd__o21a_1
*I *558:Y O *D sky130_fd_sc_hd__a21oi_1
*CAP
1 *561:A1 0.000132406
2 *558:Y 0.000132406
3 *561:A1 *557:B1 1.12578e-05
4 *561:A1 *558:A1 4.92062e-05
5 *558:A2 *561:A1 0.000108785
*RES
1 *558:Y *561:A1 5.735 
*END

*D_NET *60 0.00670906
*CONN
*I *562:C_N I *D sky130_fd_sc_hd__or3b_1
*I *560:B1 I *D sky130_fd_sc_hd__a32o_1
*I *564:A2 I *D sky130_fd_sc_hd__a21o_1
*I *563:B I *D sky130_fd_sc_hd__nand2_1
*I *568:C I *D sky130_fd_sc_hd__nand3_1
*I *574:A2 I *D sky130_fd_sc_hd__a21oi_1
*I *566:A2 I *D sky130_fd_sc_hd__a21o_1
*I *571:B I *D sky130_fd_sc_hd__and2_1
*I *559:Y O *D sky130_fd_sc_hd__nor2_2
*CAP
1 *562:C_N 8.4985e-05
2 *560:B1 0
3 *564:A2 0
4 *563:B 0
5 *568:C 0.000214581
6 *574:A2 0.00012209
7 *566:A2 0
8 *571:B 1.92508e-05
9 *559:Y 0.000194465
10 *60:74 0.000185678
11 *60:55 0.000277124
12 *60:49 0.000205444
13 *60:43 0.000296011
14 *60:23 0.000231035
15 *60:12 0.000245577
16 *60:10 0.000364262
17 *562:C_N *560:A2 1.34594e-05
18 *562:C_N *565:A1 8.8266e-05
19 *562:C_N *78:56 3.13307e-05
20 *568:C *99:16 0.000384772
21 *568:C *99:38 4.35432e-05
22 *571:B *569:A2 4.99619e-05
23 *574:A2 *566:B1 1.52945e-05
24 *574:A2 *575:B1 7.08076e-06
25 *574:A2 *616:A 8.65961e-05
26 *60:10 *559:B 4.88555e-05
27 *60:10 *99:10 5.7344e-05
28 *60:10 *107:55 0.000174512
29 *60:12 *569:A2 7.49327e-05
30 *60:12 *78:56 0.000506266
31 *60:23 *566:B1 4.18603e-06
32 *60:23 *569:A3 0
33 *60:23 *78:56 8.09021e-06
34 *60:23 *90:21 0
35 *60:43 *78:56 0.000264677
36 *60:49 *564:A1 0
37 *60:49 *99:10 0
38 *60:49 *99:38 5.16418e-05
39 *60:49 *99:69 9.50342e-06
40 *60:55 *564:A1 3.26889e-05
41 *60:55 *565:A2 1.56428e-05
42 *60:55 *90:42 2.05056e-05
43 *60:55 *99:16 0
44 *60:55 *99:38 8.65905e-05
45 *60:74 *560:B2 7.57202e-05
46 *60:74 *564:A1 0.000198939
47 *60:74 *78:56 0.00059435
48 *555:B *562:C_N 0.000121521
49 *574:A1 *574:A2 0.000138551
50 *574:A1 *60:23 0.000182342
51 *597:D *60:49 5.33085e-05
52 *598:D *574:A2 0
53 *598:D *60:23 0
54 *56:10 *60:49 0
55 *56:14 *60:12 0.000346062
56 *56:14 *60:43 0.000159313
57 *56:14 *60:74 0.000117116
58 *56:34 *562:C_N 0.000128834
59 *56:34 *60:74 7.67616e-05
*RES
1 *559:Y *60:10 9.53 
2 *60:10 *60:12 5.625 
3 *60:12 *571:B 2.05 
4 *60:12 *60:23 4.4 
5 *60:23 *566:A2 3.6 
6 *60:23 *574:A2 6.285 
7 *60:10 *60:43 2.52 
8 *60:43 *60:49 6.4 
9 *60:49 *60:55 1.86 
10 *60:55 *568:C 6.535 
11 *60:55 *563:B 1.6 
12 *60:49 *564:A2 1.6 
13 *60:43 *60:74 5.5275 
14 *60:74 *560:B1 1.6 
15 *60:74 *562:C_N 4.6975 
*END

*D_NET *61 0.000153168
*CONN
*I *561:A2 I *D sky130_fd_sc_hd__o21a_1
*I *560:X O *D sky130_fd_sc_hd__a32o_1
*CAP
1 *561:A2 3.68041e-05
2 *560:X 3.68041e-05
3 *561:A2 *557:B1 0
4 *561:A2 *562:B 5.53249e-06
5 *561:A2 *565:A1 7.4027e-05
*RES
1 *560:X *561:A2 8.07 
*END

*D_NET *62 0.00166446
*CONN
*I *565:A1 I *D sky130_fd_sc_hd__a31oi_1
*I *562:X O *D sky130_fd_sc_hd__or3b_1
*CAP
1 *565:A1 0.000433649
2 *562:X 0.000433649
3 *565:A1 *557:B1 7.04675e-05
4 *565:A1 *562:B 8.09021e-06
5 *565:A1 *564:B1 2.49909e-05
6 *565:A1 *89:37 5.98529e-05
7 *555:B *565:A1 0.000215438
8 *558:A2 *565:A1 0.000163471
9 *561:A2 *565:A1 7.4027e-05
10 *562:C_N *565:A1 8.8266e-05
11 *597:D *565:A1 8.40269e-05
12 *56:38 *565:A1 8.53113e-06
*RES
1 *562:X *565:A1 15.945 
*END

*D_NET *63 0.000655846
*CONN
*I *565:A2 I *D sky130_fd_sc_hd__a31oi_1
*I *563:Y O *D sky130_fd_sc_hd__nand2_1
*CAP
1 *565:A2 0.00022225
2 *563:Y 0.00022225
3 *565:A2 *564:A1 2.96426e-05
4 *565:A2 *564:B1 0.000163199
5 *565:A2 *90:42 2.86265e-06
6 *60:55 *565:A2 1.56428e-05
*RES
1 *563:Y *565:A2 6.065 
*END

*D_NET *64 0.000111545
*CONN
*I *565:A3 I *D sky130_fd_sc_hd__a31oi_1
*I *564:X O *D sky130_fd_sc_hd__a21o_1
*CAP
1 *565:A3 5.81042e-06
2 *564:X 5.81042e-06
3 *565:A3 *564:A1 4.99619e-05
4 *565:A3 *564:B1 4.99619e-05
*RES
1 *564:X *565:A3 3.65 
*END

*D_NET *65 0.000370027
*CONN
*I *569:A1 I *D sky130_fd_sc_hd__a31oi_1
*I *566:X O *D sky130_fd_sc_hd__a21o_1
*CAP
1 *569:A1 6.8012e-05
2 *566:X 6.8012e-05
3 *569:A1 *569:A3 6.5525e-05
4 *569:A1 *90:21 0.000131062
5 *569:A1 *90:42 3.74161e-05
*RES
1 *566:X *569:A1 9.03 
*END

*D_NET *66 0.00114365
*CONN
*I *569:A2 I *D sky130_fd_sc_hd__a31oi_1
*I *567:X O *D sky130_fd_sc_hd__or4_1
*CAP
1 *569:A2 0.000318925
2 *567:X 0.000318925
3 *569:A2 *573:A3 4.82863e-05
4 *569:A2 *69:8 8.8266e-05
5 *569:A2 *78:56 8.53113e-06
6 *569:A2 *107:70 4.66108e-05
7 *569:A2 *107:83 2.92496e-05
8 *571:B *569:A2 4.99619e-05
9 *605:A *569:A2 0.000159964
10 *60:12 *569:A2 7.49327e-05
*RES
1 *567:X *569:A2 13.59 
*END

*D_NET *67 0.000874709
*CONN
*I *569:A3 I *D sky130_fd_sc_hd__a31oi_1
*I *568:Y O *D sky130_fd_sc_hd__nand3_1
*CAP
1 *569:A3 0.000264892
2 *568:Y 0.000264892
3 *569:A3 *90:21 8.09021e-06
4 *569:A3 *90:42 0.000271308
5 *569:A1 *569:A3 6.5525e-05
6 *60:23 *569:A3 0
*RES
1 *568:Y *569:A3 11.355 
*END

*D_NET *68 0.000384761
*CONN
*I *573:A1 I *D sky130_fd_sc_hd__o31a_1
*I *570:X O *D sky130_fd_sc_hd__o41a_1
*CAP
1 *573:A1 0.000124107
2 *570:X 0.000124107
3 *573:A1 *570:B1 8.82557e-05
4 *573:A1 *573:B1 4.82919e-05
*RES
1 *570:X *573:A1 5.39 
*END

*D_NET *69 0.00185314
*CONN
*I *575:A2 I *D sky130_fd_sc_hd__a211o_1
*I *573:A2 I *D sky130_fd_sc_hd__o31a_1
*I *571:X O *D sky130_fd_sc_hd__and2_1
*CAP
1 *575:A2 0.000146742
2 *573:A2 0.000135324
3 *571:X 0.000246137
4 *69:8 0.000528203
5 *573:A2 *80:25 0.000274675
6 *573:A2 *80:44 9.50342e-06
7 *575:A2 *574:B1 5.21627e-05
8 *575:A2 *80:44 0.000214977
9 *575:A2 *90:21 0
10 *575:A2 *126:6 5.05521e-05
11 *69:8 *574:B1 3.82323e-06
12 *69:8 *90:6 7.60965e-05
13 *69:8 *90:21 2.30292e-05
14 *569:A2 *69:8 8.8266e-05
15 *600:D *575:A2 3.64998e-06
*RES
1 *571:X *69:8 6.81 
2 *69:8 *573:A2 6.765 
3 *69:8 *575:A2 7.305 
*END

*D_NET *70 0.00421892
*CONN
*I *573:A3 I *D sky130_fd_sc_hd__o31a_1
*I *572:X O *D sky130_fd_sc_hd__o211a_1
*CAP
1 *573:A3 0.00099981
2 *572:X 0.00099981
3 *573:A3 *570:A1 0.00016004
4 *573:A3 *570:A2 0.000124895
5 *573:A3 *570:A3 4.85494e-05
6 *573:A3 *570:A4 1.33293e-05
7 *573:A3 *570:B1 0.000241483
8 *573:A3 *107:68 0.000339604
9 *573:A3 *107:70 0.000192564
10 *573:A3 *132:54 0.000582566
11 *573:A3 *132:62 0.000371856
12 *573:A3 *132:66 9.61248e-05
13 *569:A2 *573:A3 4.82863e-05
*RES
1 *572:X *573:A3 25.97 
*END

*D_NET *71 0.000787944
*CONN
*I *575:B1 I *D sky130_fd_sc_hd__a211o_1
*I *574:Y O *D sky130_fd_sc_hd__a21oi_1
*CAP
1 *575:B1 0.000256465
2 *574:Y 0.000256465
3 *575:B1 *566:B1 0
4 *575:B1 *574:B1 0.000142669
5 *575:B1 *616:A 9.80032e-06
6 *574:A2 *575:B1 7.08076e-06
7 *598:D *575:B1 0.000115464
*RES
1 *574:Y *575:B1 11.1225 
*END

*D_NET *72 0.000269156
*CONN
*I *577:C I *D sky130_fd_sc_hd__and3_1
*I *576:X O *D sky130_fd_sc_hd__or2_1
*CAP
1 *577:C 8.77746e-05
2 *576:X 8.77746e-05
3 *577:C *576:A 3.86529e-05
4 *577:C *89:29 5.49535e-05
5 *601:D *577:C 0
*RES
1 *576:X *577:C 8.58 
*END

*D_NET *73 0.000714029
*CONN
*I *579:C I *D sky130_fd_sc_hd__and3_1
*I *578:X O *D sky130_fd_sc_hd__a21o_1
*CAP
1 *579:C 0.00020102
2 *578:X 0.00020102
3 *579:C *578:A1 0.000245893
4 *579:C *578:B1 7.00889e-06
5 *579:C *89:65 1.70906e-05
6 *602:D *579:C 4.19967e-05
*RES
1 *578:X *579:C 11.07 
*END

*D_NET *74 0.00162546
*CONN
*I *581:C I *D sky130_fd_sc_hd__and3_1
*I *580:Y O *D sky130_fd_sc_hd__nand2_1
*CAP
1 *581:C 0.000269029
2 *580:Y 0.000269029
3 *581:C *541:A 0.000465841
4 *581:C *541:B 0.00012657
5 *581:C *541:C 1.37804e-05
6 *581:C *541:D 0.000391946
7 *581:C *547:B1 5.99727e-05
8 *581:C *95:6 2.8585e-06
9 *581:C *107:21 2.64352e-05
*RES
1 *580:Y *581:C 14.76 
*END

*D_NET *75 0.000698898
*CONN
*I *583:A2 I *D sky130_fd_sc_hd__a21oi_1
*I *582:Y O *D sky130_fd_sc_hd__nand2_1
*CAP
1 *583:A2 0.000323955
2 *582:Y 0.000323955
3 *583:A2 *522:A1 0
4 *583:A2 *542:B 0
5 *583:A2 *582:A 3.00381e-05
6 *583:A2 *583:B1 4.43871e-06
7 *604:D *583:A2 1.65105e-05
*RES
1 *582:Y *583:A2 11.355 
*END

*D_NET *76 0.00295485
*CONN
*I *550:B I *D sky130_fd_sc_hd__or4_1
*I *553:A2 I *D sky130_fd_sc_hd__o41a_1
*I *572:A1 I *D sky130_fd_sc_hd__o211a_1
*I *580:A I *D sky130_fd_sc_hd__nand2_1
*I *504:Y O *D sky130_fd_sc_hd__inv_2
*CAP
1 *550:B 0.000163903
2 *553:A2 0
3 *572:A1 0.000178769
4 *580:A 0.000110475
5 *504:Y 6.50743e-05
6 *76:32 0.000178745
7 *76:19 0.000264361
8 *76:8 0.0002463
9 *550:B *549:A_N 7.23533e-05
10 *550:B *109:22 0.000158072
11 *550:B *133:14 6.45236e-05
12 *550:B *133:106 2.05056e-05
13 *572:A1 *550:D 8.40213e-05
14 *572:A1 *114:24 0.000121681
15 *572:A1 *132:54 0.000143782
16 *580:A *549:A_N 2.8531e-05
17 *580:A *106:10 4.69586e-05
18 *580:A *114:34 5.56462e-05
19 *76:8 *504:A 5.83121e-06
20 *76:8 *505:A 0.000242483
21 *76:8 *546:C1 2.59835e-05
22 *76:8 *134:8 5.91029e-05
23 *76:8 *134:14 4.66108e-05
24 *76:19 *549:A_N 0.000198766
25 *76:19 *114:34 1.08388e-05
26 *76:19 *133:24 0.000155928
27 *76:32 *549:A_N 5.16418e-05
28 *76:32 *133:14 9.50342e-06
29 *76:32 *133:24 4.31106e-05
30 *557:A1 *572:A1 5.30673e-05
31 *572:B1 *572:A1 4.82863e-05
*RES
1 *504:Y *76:8 6.12 
2 *76:8 *580:A 5.745 
3 *76:8 *76:19 2.4 
4 *76:19 *572:A1 7.86 
5 *76:19 *76:32 0.615 
6 *76:32 *553:A2 3.6 
7 *76:32 *550:B 6.3 
*END

*D_NET *77 0.000769329
*CONN
*I *546:A1 I *D sky130_fd_sc_hd__o2111a_1
*I *505:Y O *D sky130_fd_sc_hd__inv_2
*CAP
1 *546:A1 6.22222e-05
2 *505:Y 6.22222e-05
3 *546:A1 *505:A 0.000442097
4 *546:A1 *546:B1 0.000154238
5 *546:A1 *546:C1 4.85494e-05
*RES
1 *505:Y *546:A1 6.755 
*END

*D_NET *78 0.0101923
*CONN
*I *551:A I *D sky130_fd_sc_hd__nand3_1
*I *560:A1 I *D sky130_fd_sc_hd__a32o_1
*I *575:A1 I *D sky130_fd_sc_hd__a211o_1
*I *568:A I *D sky130_fd_sc_hd__nand3_1
*I *572:C1 I *D sky130_fd_sc_hd__o211a_1
*I *546:A2 I *D sky130_fd_sc_hd__o2111a_1
*I *514:Y O *D sky130_fd_sc_hd__inv_2
*CAP
1 *551:A 0.000302375
2 *560:A1 0
3 *575:A1 0.000234513
4 *568:A 0
5 *572:C1 0
6 *546:A2 9.5532e-05
7 *514:Y 0
8 *78:56 0.00105966
9 *78:48 0.00114323
10 *78:29 0.00101568
11 *78:12 0.00121125
12 *78:4 0.000720494
13 *546:A2 *541:C 0
14 *546:A2 *546:B1 0
15 *546:A2 *546:D1 0
16 *551:A *94:33 8.52872e-05
17 *575:A1 *566:A1 8.88715e-05
18 *575:A1 *566:B1 0.000232999
19 *575:A1 *568:B 9.53428e-06
20 *575:A1 *575:C1 4.00541e-06
21 *575:A1 *90:21 1.83847e-05
22 *575:A1 *90:42 8.09157e-05
23 *78:12 *514:A 7.23602e-05
24 *78:12 *541:C 0
25 *78:12 *546:B1 0
26 *78:12 *114:24 0
27 *78:29 *114:24 6.05513e-05
28 *78:29 *114:34 0
29 *78:29 *132:46 0.000130453
30 *78:29 *132:54 0.000344459
31 *78:48 *556:B_N 0.000131306
32 *78:48 *562:A 5.16348e-05
33 *78:48 *89:37 0.000137578
34 *78:48 *92:10 0
35 *78:48 *107:55 0.000353006
36 *78:48 *114:34 0
37 *78:48 *115:20 0.000579417
38 *78:48 *133:24 0
39 *552:A2 *78:12 0
40 *552:A3 *551:A 0.00020506
41 *556:C *78:29 8.53113e-06
42 *556:C *78:48 0.000218475
43 *557:A1 *78:48 3.47668e-05
44 *562:C_N *78:56 3.13307e-05
45 *569:A2 *78:56 8.53113e-06
46 *574:A1 *78:56 9.70985e-05
47 *52:10 *78:29 5.16348e-05
48 *60:12 *78:56 0.000506266
49 *60:23 *78:56 8.09021e-06
50 *60:43 *78:56 0.000264677
51 *60:74 *78:56 0.00059435
*RES
1 *514:Y *78:4 1.6 
2 *78:4 *78:12 8.78 
3 *78:12 *546:A2 4.98 
4 *78:12 *78:29 13 
5 *78:29 *572:C1 3.6 
6 *78:29 *78:48 16.695 
7 *78:48 *78:56 19.525 
8 *78:56 *568:A 1.6 
9 *78:56 *575:A1 6.565 
10 *78:48 *560:A1 1.6 
11 *78:4 *551:A 6.13 
*END

*D_NET *79 0.00689231
*CONN
*I *529:B I *D sky130_fd_sc_hd__or2_1
*I *527:B I *D sky130_fd_sc_hd__or2_1
*I *654:A I *D sky130_fd_sc_hd__buf_1
*I *523:B I *D sky130_fd_sc_hd__or2_1
*I *517:Y O *D sky130_fd_sc_hd__nor4b_1
*CAP
1 *529:B 0.000459139
2 *527:B 0.000218928
3 *654:A 0.000133161
4 *523:B 0
5 *517:Y 0.000870395
6 *79:23 0.000850698
7 *79:19 0.00108172
8 *79:10 0.000994369
9 *527:B *526:B1 0.000118527
10 *527:B *527:A 0.00015829
11 *527:B *80:75 0
12 *527:B *80:81 0
13 *527:B *103:80 4.82863e-05
14 *527:B *118:33 0
15 *529:B *529:A 8.8266e-05
16 *529:B *530:A1 6.47516e-05
17 *529:B *530:B1 0
18 *529:B *103:60 9.60974e-05
19 *529:B *103:71 6.99988e-05
20 *529:B *118:33 0
21 *79:10 *520:A1 0.000165928
22 *79:10 *524:A2 0.000888414
23 *79:10 *524:B1 0
24 *79:10 *80:8 4.57347e-05
25 *79:10 *103:14 7.71016e-05
26 *79:10 *118:8 0
27 *79:19 *103:14 0.000110315
28 *79:19 *103:60 1.52184e-05
29 *79:19 *118:8 0
30 *79:19 *118:33 0
31 *79:23 *103:8 8.49205e-05
32 *600:D *527:B 4.82863e-05
33 *617:A *529:B 0
34 *619:A *529:B 0.000203762
*RES
1 *517:Y *79:10 16.185 
2 *79:10 *523:B 3.6 
3 *79:10 *79:19 2.655 
4 *79:19 *79:23 9.695 
5 *79:23 *654:A 3.43 
6 *79:23 *527:B 10.235 
7 *79:19 *529:B 13.005 
*END

*D_NET *80 0.0159135
*CONN
*I *535:B I *D sky130_fd_sc_hd__and2_2
*I *530:A2 I *D sky130_fd_sc_hd__o211a_1
*I *532:A2 I *D sky130_fd_sc_hd__o211a_1
*I *534:A2 I *D sky130_fd_sc_hd__o211a_1
*I *526:A2 I *D sky130_fd_sc_hd__o211a_1
*I *522:A2 I *D sky130_fd_sc_hd__o211a_1
*I *520:A2 I *D sky130_fd_sc_hd__o211a_1
*I *528:A2 I *D sky130_fd_sc_hd__o211a_1
*I *536:B I *D sky130_fd_sc_hd__nand2_2
*I *524:A2 I *D sky130_fd_sc_hd__o211a_1
*I *518:X O *D sky130_fd_sc_hd__or4b_4
*CAP
1 *535:B 0
2 *530:A2 1.17282e-05
3 *532:A2 1.87029e-05
4 *534:A2 0.000612435
5 *526:A2 3.1209e-05
6 *522:A2 2.11313e-05
7 *520:A2 0.000131751
8 *528:A2 0
9 *536:B 8.73207e-05
10 *524:A2 0.000301084
11 *518:X 0.000170547
12 *80:124 0.000746469
13 *80:91 0.000570243
14 *80:81 0.00102394
15 *80:75 0.0010648
16 *80:62 0.000619335
17 *80:44 0.000557264
18 *80:25 0.000609773
19 *80:12 0.000556848
20 *80:8 0.00020415
21 *520:A2 *520:A1 4.18147e-05
22 *520:A2 *522:A1 1.93765e-05
23 *520:A2 *585:CLK 5.72288e-05
24 *520:A2 *103:92 4.18603e-06
25 *520:A2 *130:33 8.8086e-05
26 *524:A2 *515:A 8.06393e-06
27 *524:A2 *520:A1 0.000157599
28 *524:A2 *524:B1 2.75145e-05
29 *524:A2 *584:CLK 8.65961e-05
30 *524:A2 *136:103 2.66072e-05
31 *524:A2 *136:116 0.000467984
32 *526:A2 *526:A1 9.13949e-06
33 *526:A2 *526:B1 9.53428e-06
34 *530:A2 *530:C1 4.00541e-06
35 *530:A2 *103:80 0
36 *532:A2 *532:B1 4.21484e-05
37 *534:A2 *532:B1 0.000176652
38 *534:A2 *534:A1 7.86219e-05
39 *534:A2 *534:C1 0.000842799
40 *534:A2 *651:A 3.59784e-05
41 *536:B *536:A 4.66108e-05
42 *536:B *574:B1 1.17309e-05
43 *80:8 *515:A 0
44 *80:8 *517:A 2.0514e-05
45 *80:8 *517:B 1.47256e-05
46 *80:8 *517:C 1.33293e-05
47 *80:8 *517:D_N 8.8266e-05
48 *80:8 *129:27 0.000275553
49 *80:12 *515:A 0
50 *80:12 *535:A 5.53249e-06
51 *80:12 *573:B1 2.66861e-05
52 *80:25 *515:A 0
53 *80:25 *536:A 0.000539079
54 *80:25 *573:B1 0.000169692
55 *80:44 *508:A 0.000392136
56 *80:44 *530:C1 4.92935e-05
57 *80:44 *536:A 4.21314e-05
58 *80:44 *598:CLK 0
59 *80:44 *126:6 1.83756e-05
60 *80:62 *528:A1 0.000281905
61 *80:62 *528:B1 0
62 *80:62 *528:C1 1.37328e-05
63 *80:62 *530:C1 0.000179858
64 *80:62 *590:D 5.83373e-05
65 *80:62 *103:71 9.50342e-06
66 *80:62 *103:80 3.70488e-05
67 *80:75 *528:A1 3.26889e-05
68 *80:75 *530:C1 4.43682e-05
69 *80:75 *532:A1 0.000158297
70 *80:75 *637:A 3.09233e-05
71 *80:75 *645:A 5.30673e-05
72 *80:75 *118:33 4.66108e-05
73 *80:75 *118:37 0.000391354
74 *80:75 *136:64 3.09179e-05
75 *80:75 *154:10 0
76 *80:81 *525:B 0.000111679
77 *80:81 *526:A1 3.82323e-06
78 *80:81 *526:B1 4.26162e-05
79 *80:81 *526:C1 0.000162312
80 *80:81 *130:12 6.48137e-05
81 *80:91 *520:C1 4.82919e-05
82 *80:91 *526:A1 4.87234e-06
83 *80:91 *649:A 0.000144662
84 *80:91 *130:33 0
85 *80:91 *136:16 0.000227359
86 *527:B *80:75 0
87 *527:B *80:81 0
88 *573:A2 *80:25 0.000274675
89 *573:A2 *80:44 9.50342e-06
90 *575:A2 *80:44 0.000214977
91 *586:D *522:A2 0
92 *600:D *80:44 0.000450338
93 *600:D *80:62 0.000137462
94 *600:D *80:124 0.000234973
95 *617:A *80:62 0.000163199
96 *619:A *80:62 7.89034e-05
97 *79:10 *524:A2 0.000888414
98 *79:10 *80:8 4.57347e-05
*RES
1 *518:X *80:8 5.86 
2 *80:8 *80:12 2.615 
3 *80:12 *524:A2 14.325 
4 *80:12 *80:25 7.245 
5 *80:25 *536:B 5.115 
6 *80:25 *80:44 11.66 
7 *80:44 *80:62 12.115 
8 *80:62 *528:A2 1.6 
9 *80:62 *80:75 10.64 
10 *80:75 *80:81 11.69 
11 *80:81 *80:91 10.675 
12 *80:91 *520:A2 8.54 
13 *80:91 *522:A2 1.96 
14 *80:81 *526:A2 2.215 
15 *80:75 *80:124 6.175 
16 *80:124 *534:A2 15.87 
17 *80:124 *532:A2 4.215 
18 *80:44 *530:A2 1.96 
19 *80:8 *535:B 1.6 
*END

*D_NET *81 0.00084435
*CONN
*I *520:B1 I *D sky130_fd_sc_hd__o211a_1
*I *519:X O *D sky130_fd_sc_hd__or2_1
*CAP
1 *520:B1 0.000239378
2 *519:X 0.000239378
3 *520:B1 *519:A 2.86975e-05
4 *520:B1 *520:C1 4.82863e-05
5 *520:B1 *521:B 2.75145e-05
6 *520:B1 *522:B1 4.92062e-05
7 *520:B1 *623:A 8.65961e-05
8 *520:B1 *130:18 0.000125293
*RES
1 *519:X *520:B1 8.495 
*END

*D_NET *82 0.00197747
*CONN
*I *522:B1 I *D sky130_fd_sc_hd__o211a_1
*I *521:X O *D sky130_fd_sc_hd__or2_1
*CAP
1 *522:B1 0.000601876
2 *521:X 0.000601876
3 *522:B1 *520:C1 0.000135896
4 *522:B1 *521:B 9.79922e-05
5 *522:B1 *622:A 0.000354725
6 *522:B1 *130:33 0.000135896
7 *520:B1 *522:B1 4.92062e-05
*RES
1 *521:X *522:B1 16.185 
*END

*D_NET *83 0.000617295
*CONN
*I *524:B1 I *D sky130_fd_sc_hd__o211a_1
*I *523:X O *D sky130_fd_sc_hd__or2_1
*CAP
1 *524:B1 0.000245008
2 *523:X 0.000245008
3 *524:B1 *524:A1 4.18603e-06
4 *524:B1 *618:A 0
5 *524:B1 *103:14 6.55406e-05
6 *524:B1 *136:103 3.00381e-05
7 *524:A2 *524:B1 2.75145e-05
8 *587:D *524:B1 0
9 *79:10 *524:B1 0
*RES
1 *523:X *524:B1 11.325 
*END

*D_NET *84 0.00132165
*CONN
*I *526:B1 I *D sky130_fd_sc_hd__o211a_1
*I *525:X O *D sky130_fd_sc_hd__or2_1
*CAP
1 *526:B1 0.000337245
2 *525:X 0.000337245
3 *526:B1 *526:A1 0.000280435
4 *526:B1 *526:C1 0.000196045
5 *526:A2 *526:B1 9.53428e-06
6 *527:B *526:B1 0.000118527
7 *80:81 *526:B1 4.26162e-05
*RES
1 *525:X *526:B1 15.225 
*END

*D_NET *85 0.000874891
*CONN
*I *528:B1 I *D sky130_fd_sc_hd__o211a_1
*I *527:X O *D sky130_fd_sc_hd__or2_1
*CAP
1 *528:B1 0.000300119
2 *527:X 0.000300119
3 *528:B1 *103:80 0.000274654
4 *528:B1 *118:33 0
5 *80:62 *528:B1 0
*RES
1 *527:X *528:B1 11.1 
*END

*D_NET *86 0.000754616
*CONN
*I *530:B1 I *D sky130_fd_sc_hd__o211a_1
*I *529:X O *D sky130_fd_sc_hd__or2_1
*CAP
1 *530:B1 0.000275313
2 *529:X 0.000275313
3 *530:B1 *530:A1 6.47516e-05
4 *530:B1 *636:A 0
5 *529:B *530:B1 0
6 *617:A *530:B1 0.000139238
*RES
1 *529:X *530:B1 11.76 
*END

*D_NET *87 0.00160124
*CONN
*I *532:B1 I *D sky130_fd_sc_hd__o211a_1
*I *531:X O *D sky130_fd_sc_hd__or2_1
*CAP
1 *532:B1 0.000493766
2 *531:X 0.000493766
3 *532:B1 *531:A 0.000124895
4 *532:B1 *626:A 0.000116165
5 *532:B1 *650:A 2.88543e-05
6 *532:B1 *136:51 0.000106885
7 *532:B1 *136:64 5.53249e-06
8 *532:B1 *152:6 4.87485e-06
9 *532:A2 *532:B1 4.21484e-05
10 *534:A2 *532:B1 0.000176652
11 *588:D *532:B1 7.70553e-06
*RES
1 *531:X *532:B1 15.12 
*END

*D_NET *88 0.000699683
*CONN
*I *534:B1 I *D sky130_fd_sc_hd__o211a_1
*I *533:X O *D sky130_fd_sc_hd__or2_1
*CAP
1 *534:B1 0.000280502
2 *533:X 0.000280502
3 *534:B1 *533:B 8.65905e-05
4 *534:B1 *592:D 5.2089e-05
5 *534:B1 *103:90 0
6 *621:A *534:B1 0
*RES
1 *533:X *534:B1 11.67 
*END

*D_NET *89 0.0120935
*CONN
*I *573:B1 I *D sky130_fd_sc_hd__o31a_1
*I *579:A I *D sky130_fd_sc_hd__and3_1
*I *547:B1 I *D sky130_fd_sc_hd__o21a_1
*I *581:A I *D sky130_fd_sc_hd__and3_1
*I *557:B1 I *D sky130_fd_sc_hd__o31a_1
*I *561:B1 I *D sky130_fd_sc_hd__o21a_1
*I *577:A I *D sky130_fd_sc_hd__and3_1
*I *535:X O *D sky130_fd_sc_hd__and2_2
*CAP
1 *573:B1 0.000218704
2 *579:A 0
3 *547:B1 9.62978e-05
4 *581:A 0
5 *557:B1 0.000531115
6 *561:B1 0
7 *577:A 0
8 *535:X 0
9 *89:79 0.000625031
10 *89:65 0.000684711
11 *89:37 0.00114587
12 *89:29 0.0013912
13 *89:22 0.00137464
14 *89:6 0.000972873
15 *547:B1 *95:6 3.23663e-05
16 *547:B1 *95:12 0.000145184
17 *557:B1 *558:A1 4.82863e-05
18 *557:B1 *562:A 0.000134254
19 *557:B1 *562:B 0
20 *557:B1 *94:44 0
21 *573:B1 *516:A_N 5.53249e-06
22 *573:B1 *535:A 0
23 *573:B1 *570:B1 4.82919e-05
24 *573:B1 *609:A 0
25 *573:B1 *129:10 9.02726e-05
26 *89:22 *516:A_N 5.21046e-05
27 *89:22 *516:B 0
28 *89:22 *537:A 0
29 *89:22 *577:B 2.86265e-06
30 *89:22 *111:8 0
31 *89:22 *114:34 0.000146094
32 *89:22 *129:27 0.000352161
33 *89:22 *129:38 0.000187281
34 *89:29 *520:A1 0.000113482
35 *89:29 *577:B 3.07153e-05
36 *89:37 *562:B 0
37 *89:37 *578:A1 0
38 *89:37 *613:A 0.000220116
39 *89:37 *90:42 0
40 *89:37 *92:10 0
41 *89:37 *104:69 0
42 *89:37 *105:10 0.000156848
43 *89:37 *129:84 0
44 *89:65 *93:6 1.17309e-05
45 *89:65 *129:105 4.66108e-05
46 *89:79 *578:A1 0.000139245
47 *89:79 *578:A2 0.000137578
48 *89:79 *104:34 0.00126465
49 *89:79 *107:21 0
50 *89:79 *114:34 0.000236577
51 *555:B *557:B1 0.000118413
52 *557:A2 *557:B1 8.8266e-05
53 *558:A2 *557:B1 0.000179558
54 *558:A2 *89:37 0.000109995
55 *561:A1 *557:B1 1.12578e-05
56 *561:A2 *557:B1 0
57 *565:A1 *557:B1 7.04675e-05
58 *565:A1 *89:37 5.98529e-05
59 *573:A1 *573:B1 4.82919e-05
60 *577:C *89:29 5.49535e-05
61 *579:C *89:65 1.70906e-05
62 *581:C *547:B1 5.99727e-05
63 *593:D *547:B1 8.8266e-05
64 *601:D *89:29 4.82863e-05
65 *602:D *89:65 4.82919e-05
66 *603:D *547:B1 2.75145e-05
67 *605:A *89:22 3.47837e-05
68 *56:38 *89:37 5.16348e-05
69 *78:48 *89:37 0.000137578
70 *80:12 *573:B1 2.66861e-05
71 *80:25 *573:B1 0.000169692
*RES
1 *535:X *89:6 3.6 
2 *89:6 *89:22 17.79 
3 *89:22 *577:A 1.6 
4 *89:22 *89:29 9.075 
5 *89:29 *89:37 15.265 
6 *89:37 *561:B1 1.6 
7 *89:37 *557:B1 14.9 
8 *89:29 *89:65 2.52 
9 *89:65 *89:79 22.76 
10 *89:79 *581:A 1.6 
11 *89:79 *547:B1 4.825 
12 *89:65 *579:A 1.6 
13 *89:6 *573:B1 8.745 
*END

*D_NET *90 0.00982001
*CONN
*I *552:B1 I *D sky130_fd_sc_hd__a31oi_1
*I *583:B1 I *D sky130_fd_sc_hd__a21oi_1
*I *565:B1 I *D sky130_fd_sc_hd__a31oi_1
*I *575:C1 I *D sky130_fd_sc_hd__a211o_1
*I *569:B1 I *D sky130_fd_sc_hd__a31oi_1
*I *536:Y O *D sky130_fd_sc_hd__nand2_2
*CAP
1 *552:B1 0
2 *583:B1 0.000563902
3 *565:B1 0
4 *575:C1 3.38389e-05
5 *569:B1 0
6 *536:Y 3.01514e-05
7 *90:59 0.0025682
8 *90:42 0.00289607
9 *90:21 0.00103293
10 *90:6 0.000137476
11 *575:C1 *566:A1 0
12 *583:B1 *549:A_N 4.82919e-05
13 *583:B1 *552:A1 2.95721e-05
14 *583:B1 *583:A1 4.66108e-05
15 *583:B1 *604:CLK 3.72916e-05
16 *583:B1 *94:25 0.000136518
17 *583:B1 *109:12 4.35379e-05
18 *90:6 *574:B1 3.72916e-05
19 *90:42 *566:A1 0.000195482
20 *90:42 *99:16 0.000409394
21 *90:42 *99:38 0.000152328
22 *90:42 *104:69 5.76612e-05
23 *90:59 *552:A1 1.0145e-05
24 *90:59 *94:25 9.5799e-06
25 *90:59 *104:69 6.17113e-06
26 *552:A2 *583:B1 8.69039e-05
27 *565:A2 *90:42 2.86265e-06
28 *569:A1 *90:21 0.000131062
29 *569:A1 *90:42 3.74161e-05
30 *569:A3 *90:21 8.09021e-06
31 *569:A3 *90:42 0.000271308
32 *575:A1 *575:C1 4.00541e-06
33 *575:A1 *90:21 1.83847e-05
34 *575:A1 *90:42 8.09157e-05
35 *575:A2 *90:21 0
36 *583:A2 *583:B1 4.43871e-06
37 *597:D *90:42 0.000311277
38 *598:D *90:21 9.71067e-05
39 *604:D *583:B1 0.000164157
40 *60:23 *90:21 0
41 *60:55 *90:42 2.05056e-05
42 *69:8 *90:6 7.60965e-05
43 *69:8 *90:21 2.30292e-05
44 *89:37 *90:42 0
*RES
1 *536:Y *90:6 2.74 
2 *90:6 *569:B1 1.6 
3 *90:6 *90:21 6.79 
4 *90:21 *575:C1 2.215 
5 *90:21 *90:42 17.105 
6 *90:42 *565:B1 3.6 
7 *90:42 *90:59 4.88247 
8 *90:59 *583:B1 16.93 
9 *90:59 *552:B1 3.6 
*END

*D_NET *91 0.00711284
*CONN
*I *577:B I *D sky130_fd_sc_hd__and3_1
*I *550:D I *D sky130_fd_sc_hd__or4_1
*I *553:A4 I *D sky130_fd_sc_hd__o41a_1
*I *567:D I *D sky130_fd_sc_hd__or4_1
*I *570:A4 I *D sky130_fd_sc_hd__o41a_1
*I *537:Y O *D sky130_fd_sc_hd__nand2_1
*CAP
1 *577:B 0.00019893
2 *550:D 0.000211746
3 *553:A4 0
4 *567:D 0
5 *570:A4 0.000347289
6 *537:Y 0
7 *91:42 0.00183753
8 *91:23 0.00164837
9 *91:10 0.000549158
10 *91:4 0.000378217
11 *550:D *611:A 5.65627e-05
12 *550:D *107:34 6.28843e-05
13 *550:D *107:49 2.42236e-05
14 *550:D *109:22 5.16418e-05
15 *550:D *114:24 0.000173969
16 *570:A4 *570:A3 0.000382281
17 *570:A4 *570:B1 9.53428e-06
18 *570:A4 *132:62 1.19928e-05
19 *570:A4 *132:66 1.19928e-05
20 *577:B *129:38 3.54025e-05
21 *577:B *135:61 3.66286e-05
22 *91:10 *99:10 0
23 *91:10 *129:53 0
24 *91:10 *132:84 0.000243162
25 *91:10 *135:37 3.47982e-05
26 *91:10 *135:61 8.8266e-05
27 *91:23 *559:B 0
28 *91:23 *99:10 0
29 *91:23 *132:84 4.54719e-05
30 *91:42 *522:A1 0.000502811
31 *91:42 *559:B 0
32 *91:42 *132:84 2.14129e-05
33 *91:42 *133:24 1.7635e-05
34 *572:A1 *550:D 8.40213e-05
35 *573:A3 *570:A4 1.33293e-05
36 *89:22 *577:B 2.86265e-06
37 *89:29 *577:B 3.07153e-05
*RES
1 *537:Y *91:4 1.6 
2 *91:4 *91:10 5.705 
3 *91:10 *570:A4 8.46 
4 *91:10 *91:23 0.615 
5 *91:23 *567:D 3.6 
6 *91:23 *91:42 7.02093 
7 *91:42 *553:A4 1.6 
8 *91:42 *550:D 10.01 
9 *91:4 *577:B 4.12 
*END

*D_NET *92 0.00250866
*CONN
*I *560:B2 I *D sky130_fd_sc_hd__a32o_1
*I *564:A1 I *D sky130_fd_sc_hd__a21o_1
*I *538:X O *D sky130_fd_sc_hd__and3_1
*CAP
1 *560:B2 1.25806e-05
2 *564:A1 0.000175724
3 *538:X 0.000467444
4 *92:10 0.000655749
5 *564:A1 *564:B1 7.19795e-05
6 *564:A1 *104:69 0.000155928
7 *92:10 *613:A 0
8 *92:10 *104:10 0
9 *92:10 *104:14 0
10 *92:10 *104:69 0
11 *92:10 *135:10 4.32126e-05
12 *565:A2 *564:A1 2.96426e-05
13 *565:A3 *564:A1 4.99619e-05
14 *597:D *564:A1 0.000238137
15 *56:10 *564:A1 1.70935e-05
16 *56:34 *560:B2 8.65961e-05
17 *56:34 *564:A1 0.000197264
18 *60:49 *564:A1 0
19 *60:55 *564:A1 3.26889e-05
20 *60:74 *560:B2 7.57202e-05
21 *60:74 *564:A1 0.000198939
22 *78:48 *92:10 0
23 *89:37 *92:10 0
*RES
1 *538:X *92:10 12.335 
2 *92:10 *564:A1 11.855 
3 *92:10 *560:B2 2.395 
*END

*D_NET *93 0.00263027
*CONN
*I *580:B I *D sky130_fd_sc_hd__nand2_1
*I *579:B I *D sky130_fd_sc_hd__and3_1
*I *562:B I *D sky130_fd_sc_hd__or3b_1
*I *539:Y O *D sky130_fd_sc_hd__nand3_1
*CAP
1 *580:B 0.000257053
2 *579:B 0
3 *562:B 0.000542634
4 *539:Y 0
5 *93:6 0.000665067
6 *93:4 0.000379486
7 *562:B *556:B_N 0
8 *562:B *560:A2 0
9 *562:B *94:44 0
10 *562:B *98:10 0
11 *562:B *115:20 0
12 *562:B *129:84 0.000149776
13 *580:B *541:A 0.000122337
14 *580:B *541:D 4.83736e-05
15 *580:B *129:105 4.54919e-05
16 *580:B *129:116 0.000353049
17 *93:6 *129:105 4.16445e-05
18 *557:B1 *562:B 0
19 *561:A2 *562:B 5.53249e-06
20 *565:A1 *562:B 8.09021e-06
21 *56:38 *562:B 0
22 *89:37 *562:B 0
23 *89:65 *93:6 1.17309e-05
*RES
1 *539:Y *93:4 1.6 
2 *93:4 *93:6 1.485 
3 *93:6 *562:B 13.865 
4 *93:6 *579:B 1.6 
5 *93:4 *580:B 7.51 
*END

*D_NET *94 0.00661259
*CONN
*I *548:A1 I *D sky130_fd_sc_hd__a21o_1
*I *551:B I *D sky130_fd_sc_hd__nand3_1
*I *555:A I *D sky130_fd_sc_hd__and2_1
*I *560:A2 I *D sky130_fd_sc_hd__a32o_1
*I *558:A1 I *D sky130_fd_sc_hd__a21oi_1
*I *546:B1 I *D sky130_fd_sc_hd__o2111a_1
*I *540:X O *D sky130_fd_sc_hd__and2b_1
*CAP
1 *548:A1 0.000109168
2 *551:B 0
3 *555:A 0
4 *560:A2 0.000379556
5 *558:A1 6.99425e-05
6 *546:B1 0.000383488
7 *540:X 5.74818e-05
8 *94:44 0.000485931
9 *94:33 0.00108234
10 *94:27 0.000906021
11 *94:25 0.000338211
12 *94:8 0.000670012
13 *546:B1 *505:A 8.8266e-05
14 *546:B1 *543:A1 6.73751e-05
15 *546:B1 *546:C1 3.4687e-05
16 *546:B1 *132:10 4.49328e-05
17 *546:B1 *132:36 2.84137e-05
18 *548:A1 *548:B1 8.49205e-05
19 *548:A1 *551:C 4.75576e-05
20 *548:A1 *552:A1 2.82348e-05
21 *558:A1 *558:B1 0.000124895
22 *560:A2 *562:A 0.000201503
23 *560:A2 *115:20 5.16418e-05
24 *94:8 *549:A_N 8.65905e-05
25 *94:25 *551:C 4.43871e-06
26 *94:25 *552:A1 2.53191e-06
27 *94:25 *604:CLK 0
28 *94:33 *552:A1 2.75145e-05
29 *94:33 *558:B1 0.000122331
30 *94:44 *115:20 0.000205151
31 *546:A1 *546:B1 0.000154238
32 *546:A2 *546:B1 0
33 *551:A *94:33 8.52872e-05
34 *552:A2 *94:25 0
35 *552:A3 *94:33 5.14448e-05
36 *555:B *560:A2 0.00021078
37 *557:B1 *558:A1 4.82863e-05
38 *557:B1 *94:44 0
39 *561:A1 *558:A1 4.92062e-05
40 *562:B *560:A2 0
41 *562:B *94:44 0
42 *562:C_N *560:A2 1.34594e-05
43 *583:B1 *94:25 0.000136518
44 *594:D *94:33 0.000120655
45 *604:D *94:25 0
46 *78:12 *546:B1 0
47 *90:59 *94:25 9.5799e-06
*RES
1 *540:X *94:8 4.395 
2 *94:8 *546:B1 11.37 
3 *94:8 *94:25 3.93 
4 *94:25 *94:27 2 
5 *94:27 *94:33 14.025 
6 *94:33 *558:A1 3.43 
7 *94:33 *94:44 4.4 
8 *94:44 *560:A2 9.165 
9 *94:44 *555:A 3.6 
10 *94:27 *551:B 1.6 
11 *94:25 *548:A1 5.52 
*END

*D_NET *95 0.00213977
*CONN
*I *581:B I *D sky130_fd_sc_hd__and3_1
*I *542:B I *D sky130_fd_sc_hd__or2_1
*I *582:B I *D sky130_fd_sc_hd__nand2_1
*I *543:A2 I *D sky130_fd_sc_hd__o21a_1
*I *541:Y O *D sky130_fd_sc_hd__nand4_1
*CAP
1 *581:B 0
2 *542:B 0.000120677
3 *582:B 0
4 *543:A2 0
5 *541:Y 0.000110615
6 *95:23 0.000319634
7 *95:12 0.000502282
8 *95:6 0.00041394
9 *542:B *543:A1 1.1561e-05
10 *542:B *132:10 6.36578e-05
11 *542:B *132:36 4.20983e-05
12 *95:6 *541:A 3.00381e-05
13 *95:12 *543:A1 4.82919e-05
14 *95:12 *547:A1 3.00381e-05
15 *95:23 *543:A1 0.000183458
16 *547:B1 *95:6 3.23663e-05
17 *547:B1 *95:12 0.000145184
18 *581:C *95:6 2.8585e-06
19 *583:A2 *542:B 0
20 *593:D *95:12 8.3067e-05
21 *604:D *542:B 0
*RES
1 *541:Y *95:6 3.085 
2 *95:6 *95:12 5.655 
3 *95:12 *543:A2 1.6 
4 *95:12 *95:23 5.87 
5 *95:23 *582:B 3.6 
6 *95:23 *542:B 6 
7 *95:6 *581:B 1.6 
*END

*D_NET *96 0.000268689
*CONN
*I *583:A1 I *D sky130_fd_sc_hd__a21oi_1
*I *542:X O *D sky130_fd_sc_hd__or2_1
*CAP
1 *583:A1 2.79643e-05
2 *542:X 2.79643e-05
3 *583:A1 *542:A 0.000121437
4 *583:A1 *549:A_N 4.47125e-05
5 *583:B1 *583:A1 4.66108e-05
*RES
1 *542:X *583:A1 4.34 
*END

*D_NET *97 9.40065e-05
*CONN
*I *547:A1 I *D sky130_fd_sc_hd__o21a_1
*I *543:X O *D sky130_fd_sc_hd__o21a_1
*CAP
1 *547:A1 7.00326e-06
2 *543:X 7.00326e-06
3 *593:D *547:A1 4.99619e-05
4 *95:12 *547:A1 3.00381e-05
*RES
1 *543:X *547:A1 3.65 
*END

*D_NET *98 0.00110529
*CONN
*I *556:B_N I *D sky130_fd_sc_hd__and4bb_1
*I *572:A2 I *D sky130_fd_sc_hd__o211a_1
*I *544:X O *D sky130_fd_sc_hd__and2b_1
*CAP
1 *556:B_N 0.0001601
2 *572:A2 0
3 *544:X 0.000103989
4 *98:10 0.000264089
5 *556:B_N *107:55 0.000161529
6 *556:B_N *115:20 5.16418e-05
7 *98:10 *133:24 4.99619e-05
8 *556:C *556:B_N 0.000114255
9 *562:B *556:B_N 0
10 *562:B *98:10 0
11 *52:10 *556:B_N 5.53249e-06
12 *52:10 *98:10 6.28843e-05
13 *78:48 *556:B_N 0.000131306
*RES
1 *544:X *98:10 5.43 
2 *98:10 *572:A2 3.6 
3 *98:10 *556:B_N 7.74 
*END

*D_NET *99 0.00931519
*CONN
*I *548:A2 I *D sky130_fd_sc_hd__a21o_1
*I *551:C I *D sky130_fd_sc_hd__nand3_1
*I *563:A I *D sky130_fd_sc_hd__nand2_1
*I *568:B I *D sky130_fd_sc_hd__nand3_1
*I *566:A1 I *D sky130_fd_sc_hd__a21o_1
*I *545:X O *D sky130_fd_sc_hd__and3b_1
*CAP
1 *548:A2 1.92085e-05
2 *551:C 6.24294e-05
3 *563:A 0
4 *568:B 1.11992e-05
5 *566:A1 7.85418e-05
6 *545:X 0.000508648
7 *99:69 0.00187635
8 *99:38 0.00185572
9 *99:16 0.000209057
10 *99:10 0.000688974
11 *548:A2 *548:B1 4.82919e-05
12 *548:A2 *604:CLK 9.82856e-06
13 *548:A2 *104:94 4.82919e-05
14 *551:C *604:CLK 6.56022e-05
15 *99:10 *559:B 7.13722e-05
16 *99:10 *107:55 0.000181376
17 *99:10 *129:53 0
18 *99:69 *509:A 0.000292384
19 *99:69 *511:A 3.83041e-05
20 *99:69 *552:A1 4.82919e-05
21 *99:69 *104:78 0.000149097
22 *99:69 *104:86 0.000400497
23 *99:69 *104:94 0.000498605
24 *99:69 *114:54 0.000354725
25 *548:A1 *551:C 4.75576e-05
26 *568:C *99:16 0.000384772
27 *568:C *99:38 4.35432e-05
28 *575:A1 *566:A1 8.88715e-05
29 *575:A1 *568:B 9.53428e-06
30 *575:C1 *566:A1 0
31 *595:D *99:69 7.36892e-05
32 *596:D *99:69 0.000111993
33 *597:D *99:69 7.17078e-05
34 *56:10 *99:10 0
35 *60:10 *99:10 5.7344e-05
36 *60:49 *99:10 0
37 *60:49 *99:38 5.16418e-05
38 *60:49 *99:69 9.50342e-06
39 *60:55 *99:16 0
40 *60:55 *99:38 8.65905e-05
41 *90:42 *566:A1 0.000195482
42 *90:42 *99:16 0.000409394
43 *90:42 *99:38 0.000152328
44 *91:10 *99:10 0
45 *91:23 *99:10 0
46 *94:25 *551:C 4.43871e-06
*RES
1 *545:X *99:10 14.12 
2 *99:10 *99:16 5.4 
3 *99:16 *566:A1 3.79 
4 *99:16 *568:B 1.96 
5 *99:10 *99:38 4.1 
6 *99:38 *563:A 3.6 
7 *99:38 *99:69 32.4025 
8 *99:69 *551:C 5.1075 
9 *99:69 *548:A2 4.2825 
*END

*D_NET *100 0.000243673
*CONN
*I *547:A2 I *D sky130_fd_sc_hd__o21a_1
*I *546:X O *D sky130_fd_sc_hd__o2111a_1
*CAP
1 *547:A2 9.76933e-05
2 *546:X 9.76933e-05
3 *547:A2 *505:A 4.82863e-05
4 *547:A2 *543:A1 0
*RES
1 *546:X *547:A2 8.52 
*END

*D_NET *101 0.00047955
*CONN
*I *552:A1 I *D sky130_fd_sc_hd__a31oi_1
*I *548:X O *D sky130_fd_sc_hd__a21o_1
*CAP
1 *552:A1 0.000132999
2 *548:X 0.000132999
3 *548:A1 *552:A1 2.82348e-05
4 *552:A2 *552:A1 1.72991e-05
5 *552:A3 *552:A1 4.99619e-05
6 *583:B1 *552:A1 2.95721e-05
7 *90:59 *552:A1 1.0145e-05
8 *94:25 *552:A1 2.53191e-06
9 *94:33 *552:A1 2.75145e-05
10 *99:69 *552:A1 4.82919e-05
*RES
1 *548:X *552:A1 9.735 
*END

*D_NET *102 0.00250601
*CONN
*I *607:A I *D sky130_fd_sc_hd__clkbuf_16
*I *606:A I *D sky130_fd_sc_hd__clkbuf_16
*I *605:X O *D sky130_fd_sc_hd__clkbuf_16
*CAP
1 *607:A 2.24329e-05
2 *606:A 0.000585607
3 *605:X 0
4 *102:4 0.00060804
5 *606:A *107:55 0.00011577
6 *606:A *115:20 0.000921815
7 *607:A *107:55 9.91257e-05
8 *607:A *115:20 0.000153217
*RES
1 *605:X *102:4 1.6 
2 *102:4 *606:A 13.9 
3 *102:4 *607:A 3.085 
*END

*D_NET *103 0.0126569
*CONN
*I *600:CLK I *D sky130_fd_sc_hd__dfxtp_1
*I *591:CLK I *D sky130_fd_sc_hd__dfxtp_1
*I *592:CLK I *D sky130_fd_sc_hd__dfxtp_1
*I *588:CLK I *D sky130_fd_sc_hd__dfxtp_1
*I *586:CLK I *D sky130_fd_sc_hd__dfxtp_1
*I *585:CLK I *D sky130_fd_sc_hd__dfxtp_1
*I *590:CLK I *D sky130_fd_sc_hd__dfxtp_1
*I *589:CLK I *D sky130_fd_sc_hd__dfxtp_1
*I *599:CLK I *D sky130_fd_sc_hd__dfxtp_1
*I *598:CLK I *D sky130_fd_sc_hd__dfxtp_1
*I *515:A I *D sky130_fd_sc_hd__inv_2
*I *587:CLK I *D sky130_fd_sc_hd__dfxtp_1
*I *606:X O *D sky130_fd_sc_hd__clkbuf_16
*CAP
1 *600:CLK 1.8855e-05
2 *591:CLK 0.000325341
3 *592:CLK 0
4 *588:CLK 0.000122326
5 *586:CLK 0
6 *585:CLK 0.0002649
7 *590:CLK 0
8 *589:CLK 0
9 *599:CLK 4.38291e-05
10 *598:CLK 0.000643478
11 *515:A 0.000240808
12 *587:CLK 0
13 *606:X 0.000160656
14 *103:92 0.000528817
15 *103:90 0.000657006
16 *103:86 0.000636382
17 *103:82 0.000804653
18 *103:80 0.00067934
19 *103:71 0.000658344
20 *103:60 0.000229387
21 *103:25 0.000884285
22 *103:23 0.000455431
23 *103:14 0.000587784
24 *103:8 0.000454673
25 *515:A *535:A 1.70935e-05
26 *515:A *536:A 1.38422e-05
27 *515:A *584:CLK 1.79722e-05
28 *515:A *136:116 4.12992e-05
29 *585:CLK *520:A1 2.56866e-05
30 *585:CLK *623:A 0
31 *585:CLK *647:A 0.000294109
32 *585:CLK *130:33 0
33 *588:CLK *531:A 7.60965e-05
34 *588:CLK *531:B 2.75229e-05
35 *588:CLK *650:A 0.000230925
36 *591:CLK *624:A 3.68769e-05
37 *591:CLK *646:A 0
38 *591:CLK *136:64 7.20869e-05
39 *598:CLK *508:A 0
40 *598:CLK *528:A1 9.73615e-05
41 *598:CLK *536:A 0.000165305
42 *598:CLK *574:B1 0
43 *598:CLK *636:A 0
44 *598:CLK *644:A 0
45 *103:14 *536:A 2.11084e-05
46 *103:14 *618:A 0
47 *103:23 *522:A1 0.000153041
48 *103:23 *536:A 0.000234183
49 *103:80 *530:C1 0.000236355
50 *103:80 *532:A1 0.00016031
51 *103:80 *590:D 1.43717e-05
52 *103:86 *119:8 8.40213e-05
53 *103:90 *533:B 0
54 *103:90 *130:33 0
55 *103:92 *522:A1 0
56 *103:92 *130:33 0
57 *520:A2 *585:CLK 5.72288e-05
58 *520:A2 *103:92 4.18603e-06
59 *524:A2 *515:A 8.06393e-06
60 *524:B1 *103:14 6.55406e-05
61 *527:B *103:80 4.82863e-05
62 *528:B1 *103:80 0.000274654
63 *529:B *103:60 9.60974e-05
64 *529:B *103:71 6.99988e-05
65 *530:A2 *103:80 0
66 *534:B1 *103:90 0
67 *585:D *585:CLK 0.00022172
68 *591:D *591:CLK 0.000111315
69 *598:D *598:CLK 0.000111988
70 *599:D *515:A 2.45662e-05
71 *599:D *598:CLK 5.21046e-05
72 *599:D *599:CLK 3.1226e-05
73 *599:D *103:23 7.82635e-05
74 *600:D *600:CLK 9.13949e-06
75 *600:D *103:80 0.000488959
76 *600:D *103:82 0.000100289
77 *619:A *103:71 5.33085e-05
78 *79:10 *103:14 7.71016e-05
79 *79:19 *103:14 0.000110315
80 *79:19 *103:60 1.52184e-05
81 *79:23 *103:8 8.49205e-05
82 *80:8 *515:A 0
83 *80:12 *515:A 0
84 *80:25 *515:A 0
85 *80:44 *598:CLK 0
86 *80:62 *103:71 9.50342e-06
87 *80:62 *103:80 3.70488e-05
*RES
1 *606:X *103:8 6.12 
2 *103:8 *103:14 6.38 
3 *103:14 *587:CLK 1.6 
4 *103:14 *103:23 7.365 
5 *103:23 *103:25 2 
6 *103:25 *515:A 7.0425 
7 *103:25 *598:CLK 15.915 
8 *103:23 *599:CLK 2.41 
9 *103:8 *103:60 2.4 
10 *103:60 *589:CLK 3.6 
11 *103:60 *103:71 4.145 
12 *103:71 *590:CLK 1.6 
13 *103:71 *103:80 12.54 
14 *103:80 *103:82 1.83 
15 *103:82 *103:86 5.205 
16 *103:86 *103:90 6.185 
17 *103:90 *103:92 4.185 
18 *103:92 *585:CLK 10.155 
19 *103:92 *586:CLK 3.6 
20 *103:90 *588:CLK 7.155 
21 *103:86 *592:CLK 1.6 
22 *103:82 *591:CLK 11.48 
23 *103:80 *600:CLK 1.96 
*END

*D_NET *104 0.014018
*CONN
*I *596:CLK I *D sky130_fd_sc_hd__dfxtp_1
*I *595:CLK I *D sky130_fd_sc_hd__dfxtp_1
*I *594:CLK I *D sky130_fd_sc_hd__dfxtp_1
*I *604:CLK I *D sky130_fd_sc_hd__dfxtp_1
*I *597:CLK I *D sky130_fd_sc_hd__dfxtp_1
*I *608:A I *D sky130_fd_sc_hd__clkinvlp_4
*I *593:CLK I *D sky130_fd_sc_hd__dfxtp_2
*I *603:CLK I *D sky130_fd_sc_hd__dfxtp_2
*I *602:CLK I *D sky130_fd_sc_hd__dfxtp_1
*I *601:CLK I *D sky130_fd_sc_hd__dfxtp_1
*I *607:X O *D sky130_fd_sc_hd__clkbuf_16
*CAP
1 *596:CLK 0
2 *595:CLK 0
3 *594:CLK 0
4 *604:CLK 0.00025806
5 *597:CLK 5.37288e-05
6 *608:A 0
7 *593:CLK 0.000283893
8 *603:CLK 2.08101e-05
9 *602:CLK 2.08101e-05
10 *601:CLK 0.000296456
11 *607:X 0.000238039
12 *104:94 0.000815752
13 *104:86 0.000957866
14 *104:78 0.000568693
15 *104:69 0.000608771
16 *104:34 0.000814406
17 *104:25 0.000641996
18 *104:14 0.000783201
19 *104:10 0.000487837
20 *104:8 0.000737138
21 *593:CLK *520:A1 0
22 *593:CLK *107:10 0.000543676
23 *593:CLK *112:10 0
24 *597:CLK *509:A 7.86176e-05
25 *601:CLK *114:34 0.000185306
26 *604:CLK *109:12 5.05521e-05
27 *104:8 *115:20 0.000207896
28 *104:14 *105:10 0
29 *104:25 *105:10 0.000318091
30 *104:25 *114:34 0.000146622
31 *104:34 *106:10 0.000468744
32 *104:34 *107:10 0.000468744
33 *104:34 *114:34 3.89205e-05
34 *104:69 *564:B1 4.75576e-05
35 *104:69 *643:A 3.23391e-05
36 *104:78 *509:A 3.74161e-05
37 *104:94 *511:A 4.82919e-05
38 *104:94 *548:B1 7.02628e-05
39 *104:94 *114:54 0.000353049
40 *548:A2 *604:CLK 9.82856e-06
41 *548:A2 *104:94 4.82919e-05
42 *551:C *604:CLK 6.56022e-05
43 *564:A1 *104:69 0.000155928
44 *583:B1 *604:CLK 3.72916e-05
45 *594:D *604:CLK 9.37731e-05
46 *595:D *104:94 7.36892e-05
47 *596:D *104:86 0.000111993
48 *597:D *104:69 0
49 *601:D *601:CLK 1.43717e-05
50 *602:D *104:34 7.82691e-05
51 *603:D *593:CLK 7.82691e-05
52 *56:10 *104:10 5.43199e-05
53 *56:10 *104:14 4.61658e-05
54 *56:10 *104:69 8.99482e-05
55 *89:37 *104:69 0
56 *89:79 *104:34 0.00126465
57 *90:42 *104:69 5.76612e-05
58 *90:59 *104:69 6.17113e-06
59 *92:10 *104:10 0
60 *92:10 *104:14 0
61 *92:10 *104:69 0
62 *94:25 *604:CLK 0
63 *99:69 *104:78 0.000149097
64 *99:69 *104:86 0.000400497
65 *99:69 *104:94 0.000498605
*RES
1 *607:X *104:8 6.81 
2 *104:8 *104:10 1.89 
3 *104:10 *104:14 7.46 
4 *104:14 *601:CLK 6.895 
5 *104:14 *104:25 3.9 
6 *104:25 *602:CLK 1.96 
7 *104:25 *104:34 14.94 
8 *104:34 *603:CLK 1.96 
9 *104:34 *593:CLK 12.17 
10 *104:10 *608:A 3.6 
11 *104:8 *104:69 9.545 
12 *104:69 *597:CLK 2.74 
13 *104:69 *104:78 3.555 
14 *104:78 *104:86 8.865 
15 *104:86 *104:94 12.66 
16 *104:94 *604:CLK 10.58 
17 *104:94 *594:CLK 1.6 
18 *104:86 *595:CLK 1.6 
19 *104:78 *596:CLK 1.6 
*END

*D_NET *105 0.00686044
*CONN
*I *613:A I *D sky130_fd_sc_hd__buf_2
*I *505:A I *D sky130_fd_sc_hd__inv_2
*I *549:C I *D sky130_fd_sc_hd__and4bb_1
*I *578:A2 I *D sky130_fd_sc_hd__a21o_1
*I *601:Q O *D sky130_fd_sc_hd__dfxtp_1
*CAP
1 *613:A 0.000111996
2 *505:A 0.000645535
3 *549:C 4.06437e-05
4 *578:A2 0.000217488
5 *601:Q 0.000345338
6 *105:27 0.00105085
7 *105:14 0.000836113
8 *105:10 0.000711282
9 *505:A *504:A 1.47347e-05
10 *505:A *546:C1 9.79922e-05
11 *505:A *134:14 4.07182e-05
12 *549:C *134:14 4.82863e-05
13 *578:A2 *578:A1 0.000119219
14 *578:A2 *578:B1 0.000182104
15 *578:A2 *129:84 6.6228e-05
16 *578:A2 *134:20 6.17893e-05
17 *613:A *135:10 6.28843e-05
18 *105:10 *578:A1 0
19 *105:14 *133:24 0.000197633
20 *105:27 *133:24 4.21973e-05
21 *105:27 *134:14 8.79923e-05
22 *105:27 *134:20 0.000198939
23 *546:A1 *505:A 0.000442097
24 *546:B1 *505:A 8.8266e-05
25 *547:A2 *505:A 4.82863e-05
26 *602:D *105:10 2.67022e-05
27 *76:8 *505:A 0.000242483
28 *89:37 *613:A 0.000220116
29 *89:37 *105:10 0.000156848
30 *89:79 *578:A2 0.000137578
31 *92:10 *613:A 0
32 *104:14 *105:10 0
33 *104:25 *105:10 0.000318091
*RES
1 *601:Q *105:10 9.375 
2 *105:10 *105:14 5.21 
3 *105:14 *578:A2 11.315 
4 *105:14 *105:27 4.935 
5 *105:27 *549:C 2.665 
6 *105:27 *505:A 13.93 
7 *105:10 *613:A 6.255 
*END

*D_NET *106 0.00271698
*CONN
*I *611:A I *D sky130_fd_sc_hd__buf_2
*I *612:A I *D sky130_fd_sc_hd__buf_1
*I *602:Q O *D sky130_fd_sc_hd__dfxtp_1
*CAP
1 *611:A 0.000237714
2 *612:A 0
3 *602:Q 0.000552805
4 *106:10 0.000790519
5 *611:A *549:A_N 0.000174154
6 *611:A *107:21 0
7 *611:A *107:34 0
8 *611:A *109:22 0.000203762
9 *106:10 *549:A_N 2.41368e-05
10 *106:10 *107:10 0
11 *106:10 *107:21 0
12 *106:10 *114:34 0
13 *550:D *611:A 5.65627e-05
14 *557:A3 *611:A 0.000161623
15 *580:A *106:10 4.69586e-05
16 *104:34 *106:10 0.000468744
*RES
1 *602:Q *106:10 11.52 
2 *106:10 *612:A 3.6 
3 *106:10 *611:A 9.57 
*END

*D_NET *107 0.0134626
*CONN
*I *556:D I *D sky130_fd_sc_hd__and4bb_1
*I *567:B I *D sky130_fd_sc_hd__or4_1
*I *518:A I *D sky130_fd_sc_hd__or4b_4
*I *517:A I *D sky130_fd_sc_hd__nor4b_1
*I *570:A2 I *D sky130_fd_sc_hd__o41a_1
*I *559:B I *D sky130_fd_sc_hd__nor2_2
*I *540:B I *D sky130_fd_sc_hd__and2b_1
*I *504:A I *D sky130_fd_sc_hd__inv_2
*I *541:B I *D sky130_fd_sc_hd__nand4_1
*I *603:Q O *D sky130_fd_sc_hd__dfxtp_2
*CAP
1 *556:D 0
2 *567:B 0
3 *518:A 7.08675e-06
4 *517:A 3.56932e-05
5 *570:A2 8.10885e-05
6 *559:B 3.61891e-05
7 *540:B 0.000367473
8 *504:A 3.64987e-05
9 *541:B 0.000130947
10 *603:Q 0.000729125
11 *107:83 0.000318143
12 *107:70 0.00054288
13 *107:68 0.000414247
14 *107:55 0.00160875
15 *107:49 0.00158607
16 *107:34 0.000775937
17 *107:21 0.000421463
18 *107:10 0.00107789
19 *504:A *546:C1 4.82919e-05
20 *504:A *134:8 0
21 *504:A *134:14 0
22 *517:A *517:B 0.000238137
23 *517:A *517:D_N 0.000203178
24 *518:A *517:B 4.82919e-05
25 *518:A *517:D_N 3.83041e-05
26 *540:B *541:C 0.00015896
27 *540:B *132:38 0.00033637
28 *541:B *541:D 4.35432e-05
29 *107:21 *541:C 0
30 *107:34 *541:C 0
31 *107:34 *132:46 0.000160658
32 *107:49 *549:A_N 0.000230429
33 *107:49 *109:22 1.52945e-05
34 *107:49 *114:24 0
35 *107:49 *132:46 5.16418e-05
36 *107:49 *133:106 8.34281e-06
37 *107:55 *109:22 7.68414e-06
38 *107:55 *115:20 0.000209095
39 *107:55 *133:106 3.64998e-06
40 *107:83 *609:A 0
41 *107:83 *111:8 0
42 *505:A *504:A 1.47347e-05
43 *550:D *107:34 6.28843e-05
44 *550:D *107:49 2.42236e-05
45 *556:B_N *107:55 0.000161529
46 *556:C *107:55 7.25532e-05
47 *569:A2 *107:70 4.66108e-05
48 *569:A2 *107:83 2.92496e-05
49 *573:A3 *570:A2 0.000124895
50 *573:A3 *107:68 0.000339604
51 *573:A3 *107:70 0.000192564
52 *581:C *541:B 0.00012657
53 *581:C *107:21 2.64352e-05
54 *593:CLK *107:10 0.000543676
55 *605:A *107:83 0.000186559
56 *606:A *107:55 0.00011577
57 *607:A *107:55 9.91257e-05
58 *611:A *107:21 0
59 *611:A *107:34 0
60 *60:10 *559:B 4.88555e-05
61 *60:10 *107:55 0.000174512
62 *76:8 *504:A 5.83121e-06
63 *78:48 *107:55 0.000353006
64 *80:8 *517:A 2.0514e-05
65 *89:79 *107:21 0
66 *91:23 *559:B 0
67 *91:42 *559:B 0
68 *99:10 *559:B 7.13722e-05
69 *99:10 *107:55 0.000181376
70 *104:34 *107:10 0.000468744
71 *106:10 *107:10 0
72 *106:10 *107:21 0
*RES
1 *603:Q *107:10 13.89 
2 *107:10 *541:B 5.43 
3 *107:10 *107:21 3.165 
4 *107:21 *504:A 4.41 
5 *107:21 *107:34 3.42 
6 *107:34 *540:B 10.26 
7 *107:34 *107:49 5.645 
8 *107:49 *107:55 21.155 
9 *107:55 *559:B 4.47 
10 *107:55 *107:68 5.21 
11 *107:68 *107:70 2.52 
12 *107:70 *570:A2 2.74 
13 *107:70 *107:83 8.695 
14 *107:83 *517:A 3.775 
15 *107:83 *518:A 2.05 
16 *107:68 *567:B 1.6 
17 *107:49 *556:D 1.6 
*END

*D_NET *108 0.00524884
*CONN
*I *625:A I *D sky130_fd_sc_hd__dlygate4sd3_1
*I *610:A I *D sky130_fd_sc_hd__buf_2
*I *549:A_N I *D sky130_fd_sc_hd__and4bb_1
*I *604:Q O *D sky130_fd_sc_hd__dfxtp_1
*CAP
1 *625:A 0.000155131
2 *610:A 0
3 *549:A_N 0.000735198
4 *604:Q 0
5 *108:12 0.000858854
6 *108:4 0.000278787
7 *549:A_N *541:C 4.0843e-05
8 *549:A_N *542:A 0.00011371
9 *549:A_N *132:8 0.000240168
10 *549:A_N *132:38 0.000843312
11 *549:A_N *133:10 5.4003e-05
12 *549:A_N *133:14 1.7902e-05
13 *549:A_N *133:106 0.00010804
14 *625:A *109:12 0.000118207
15 *108:12 *522:A1 6.28843e-05
16 *108:12 *542:A 0.000165101
17 *550:B *549:A_N 7.23533e-05
18 *552:A2 *549:A_N 0.00046618
19 *557:A3 *549:A_N 3.09164e-05
20 *580:A *549:A_N 2.8531e-05
21 *583:A1 *549:A_N 4.47125e-05
22 *583:B1 *549:A_N 4.82919e-05
23 *611:A *549:A_N 0.000174154
24 *76:19 *549:A_N 0.000198766
25 *76:32 *549:A_N 5.16418e-05
26 *94:8 *549:A_N 8.65905e-05
27 *106:10 *549:A_N 2.41368e-05
28 *107:49 *549:A_N 0.000230429
*RES
1 *604:Q *108:4 1.6 
2 *108:4 *108:12 6.865 
3 *108:12 *549:A_N 26.57 
4 *108:12 *610:A 1.6 
5 *108:4 *625:A 4.735 
*END

*D_NET *109 0.00996533
*CONN
*I *514:A I *D sky130_fd_sc_hd__inv_2
*I *556:A_N I *D sky130_fd_sc_hd__and4bb_1
*I *562:A I *D sky130_fd_sc_hd__or3b_1
*I *627:X O *D sky130_fd_sc_hd__buf_1
*CAP
1 *514:A 8.63643e-05
2 *556:A_N 0
3 *562:A 0.000265005
4 *627:X 0.00302488
5 *109:22 0.000971641
6 *109:12 0.00381788
7 *514:A *114:24 0
8 *562:A *115:20 0
9 *109:12 *631:A 0
10 *109:12 *639:A 2.67022e-05
11 *109:12 *112:40 0
12 *109:22 *114:24 0
13 *109:22 *133:106 0.000158066
14 *550:B *109:22 0.000158072
15 *550:D *109:22 5.16418e-05
16 *552:A2 *514:A 0
17 *555:B *562:A 0.00015182
18 *556:C *109:22 0.000197269
19 *557:A1 *562:A 9.60047e-05
20 *557:A2 *562:A 2.05056e-05
21 *557:A3 *109:22 2.4997e-05
22 *557:B1 *562:A 0.000134254
23 *560:A2 *562:A 0.000201503
24 *583:B1 *109:12 4.35379e-05
25 *595:D *109:22 0
26 *604:CLK *109:12 5.05521e-05
27 *604:D *109:12 1.5693e-05
28 *611:A *109:22 0.000203762
29 *625:A *109:12 0.000118207
30 *78:12 *514:A 7.23602e-05
31 *78:48 *562:A 5.16348e-05
32 *107:49 *109:22 1.52945e-05
33 *107:55 *109:22 7.68414e-06
*RES
1 *627:X *109:12 41.015 
2 *109:12 *109:22 15.31 
3 *109:22 *562:A 12.005 
4 *109:22 *556:A_N 1.6 
5 *109:12 *514:A 7.235 
*END

*D_NET *110 0.000970494
*CONN
*I *629:A I *D sky130_fd_sc_hd__buf_2
*I *533:A I *D sky130_fd_sc_hd__or2_1
*I *592:Q O *D sky130_fd_sc_hd__dfxtp_1
*CAP
1 *629:A 0.000162431
2 *533:A 0
3 *592:Q 0.00026557
4 *110:10 0.000428001
5 adc_out[6] *629:A 0
6 *621:A *629:A 2.14129e-05
7 *621:A *110:10 9.30787e-05
*RES
1 *592:Q *110:10 6.9 
2 *110:10 *533:A 3.6 
3 *110:10 *629:A 6.255 
*END

*D_NET *111 0.0143213
*CONN
*I *609:A I *D sky130_fd_sc_hd__clkbuf_2
*I *630:A I *D sky130_fd_sc_hd__buf_2
*I *546:D1 I *D sky130_fd_sc_hd__o2111a_1
*I *584:Q O *D sky130_fd_sc_hd__dfxtp_1
*CAP
1 *609:A 0.000207037
2 *630:A 0.00207345
3 *546:D1 7.25335e-05
4 *584:Q 0.000224692
5 *111:12 0.00333584
6 *111:8 0.00162159
7 *546:D1 *541:C 0
8 *546:D1 *543:A1 0
9 *609:A *129:10 3.1835e-05
10 *630:A *520:A1 0.000184826
11 *630:A *522:A1 0.000973521
12 *111:8 *516:A_N 0
13 *111:8 *129:10 0
14 *111:12 *520:A1 0.00209395
15 *111:12 *522:A1 0.00350204
16 *546:A2 *546:D1 0
17 *573:B1 *609:A 0
18 *605:A *111:8 0
19 *89:22 *111:8 0
20 *107:83 *609:A 0
21 *107:83 *111:8 0
*RES
1 *584:Q *111:8 6.3825 
2 *111:8 *111:12 5.89853 
3 *111:12 *546:D1 5.0975 
4 *111:12 *630:A 12.4997 
5 *111:8 *609:A 6.7725 
*END

*D_NET *112 0.0207301
*CONN
*I *631:A I *D sky130_fd_sc_hd__buf_2
*I *513:A I *D sky130_fd_sc_hd__inv_2
*I *520:A1 I *D sky130_fd_sc_hd__o211a_1
*I *543:B1 I *D sky130_fd_sc_hd__o21a_1
*I *593:Q O *D sky130_fd_sc_hd__dfxtp_2
*CAP
1 *631:A 0.000144542
2 *513:A 0.000102407
3 *520:A1 0.00489089
4 *543:B1 0
5 *593:Q 0
6 *112:40 0.00253719
7 *112:10 0.00549048
8 *112:4 0.00288983
9 *520:A1 *522:A1 0.00128131
10 *520:A1 *543:A1 1.88602e-05
11 *520:A1 *136:103 0.000156762
12 *520:A1 *136:116 0.00017194
13 *520:A2 *520:A1 4.18147e-05
14 *524:A2 *520:A1 0.000157599
15 *585:CLK *520:A1 2.56866e-05
16 *593:CLK *520:A1 0
17 *593:CLK *112:10 0
18 *593:D *112:10 0.000262646
19 *630:A *520:A1 0.000184826
20 *79:10 *520:A1 0.000165928
21 *89:29 *520:A1 0.000113482
22 *109:12 *631:A 0
23 *109:12 *112:40 0
24 *111:12 *520:A1 0.00209395
*RES
1 *593:Q *112:4 1.6 
2 *112:4 *112:10 9.275 
3 *112:10 *543:B1 3.6 
4 *112:10 *520:A1 16.3341 
5 *112:4 *112:40 31.52 
6 *112:40 *513:A 5.085 
7 *112:40 *631:A 6 
*END

*D_NET *113 0.0182253
*CONN
*I *632:A I *D sky130_fd_sc_hd__buf_2
*I *512:A I *D sky130_fd_sc_hd__inv_2
*I *522:A1 I *D sky130_fd_sc_hd__o211a_1
*I *594:Q O *D sky130_fd_sc_hd__dfxtp_1
*CAP
1 *632:A 0.000304864
2 *512:A 0
3 *522:A1 0.00527084
4 *594:Q 0
5 *113:27 0.000373147
6 *113:4 0.00533912
7 *522:A1 *536:A 0.000260145
8 *522:A1 *130:33 3.99395e-05
9 *632:A *548:B1 4.99619e-05
10 *632:A *640:A 0
11 *113:27 *548:B1 9.22715e-05
12 *520:A1 *522:A1 0.00128131
13 *520:A2 *522:A1 1.93765e-05
14 *583:A2 *522:A1 0
15 *630:A *522:A1 0.000973521
16 *91:42 *522:A1 0.000502811
17 *103:23 *522:A1 0.000153041
18 *103:92 *522:A1 0
19 *108:12 *522:A1 6.28843e-05
20 *111:12 *522:A1 0.00350204
*RES
1 *594:Q *113:4 1.6 
2 *113:4 *522:A1 28.6431 
3 *113:4 *113:27 1.41 
4 *113:27 *512:A 1.6 
5 *113:27 *632:A 10.52 
*END

*D_NET *114 0.0118897
*CONN
*I *511:A I *D sky130_fd_sc_hd__inv_2
*I *633:A I *D sky130_fd_sc_hd__buf_2
*I *553:B1 I *D sky130_fd_sc_hd__o41a_1
*I *524:A1 I *D sky130_fd_sc_hd__o211a_1
*I *595:Q O *D sky130_fd_sc_hd__dfxtp_1
*CAP
1 *511:A 7.08675e-06
2 *633:A 0.000118277
3 *553:B1 0
4 *524:A1 0.000165073
5 *595:Q 0
6 *114:54 0.00021244
7 *114:34 0.00361968
8 *114:24 0.00411833
9 *114:6 0.000750795
10 *633:A *641:A 8.08439e-05
11 *114:24 *541:C 0.000160658
12 *114:24 *132:46 0.000234674
13 *114:24 *132:54 0.000180243
14 *114:34 *549:D 6.67238e-05
15 *114:34 *576:B 1.7386e-05
16 *114:34 *129:116 2.25119e-05
17 *114:34 *133:24 7.17811e-05
18 *514:A *114:24 0
19 *524:B1 *524:A1 4.18603e-06
20 *550:D *114:24 0.000173969
21 *572:A1 *114:24 0.000121681
22 *580:A *114:34 5.56462e-05
23 *584:D *114:34 4.81347e-05
24 *601:CLK *114:34 0.000185306
25 *601:D *114:34 6.50844e-06
26 *602:D *114:34 3.37735e-05
27 *52:10 *114:34 0
28 *76:19 *114:34 1.08388e-05
29 *78:12 *114:24 0
30 *78:29 *114:24 6.05513e-05
31 *78:29 *114:34 0
32 *78:48 *114:34 0
33 *89:22 *114:34 0.000146094
34 *89:79 *114:34 0.000236577
35 *99:69 *511:A 3.83041e-05
36 *99:69 *114:54 0.000354725
37 *104:25 *114:34 0.000146622
38 *104:34 *114:34 3.89205e-05
39 *104:94 *511:A 4.82919e-05
40 *104:94 *114:54 0.000353049
41 *106:10 *114:34 0
42 *107:49 *114:24 0
43 *109:22 *114:24 0
*RES
1 *595:Q *114:6 3.6 
2 *114:6 *114:24 15.68 
3 *114:24 *114:34 49.41 
4 *114:34 *524:A1 6.255 
5 *114:24 *553:B1 1.6 
6 *114:6 *114:54 5.825 
7 *114:54 *633:A 8 
8 *114:54 *511:A 2.05 
*END

*D_NET *115 0.0100324
*CONN
*I *634:A I *D sky130_fd_sc_hd__buf_2
*I *510:A I *D sky130_fd_sc_hd__inv_2
*I *526:A1 I *D sky130_fd_sc_hd__o211a_1
*I *596:Q O *D sky130_fd_sc_hd__dfxtp_1
*CAP
1 *634:A 0.000254403
2 *510:A 3.41787e-05
3 *526:A1 0.0013381
4 *596:Q 0
5 *115:20 0.00316082
6 *115:8 0.00189529
7 *115:6 0.000292794
8 *526:A1 *523:A 4.10476e-05
9 *526:A1 *570:B1 2.75229e-05
10 *634:A *642:A 9.24049e-05
11 *115:8 *558:B1 4.43871e-06
12 *115:8 *642:A 2.34423e-05
13 *115:20 *558:B1 7.30055e-05
14 *115:20 *118:33 0.000116853
15 *526:A2 *526:A1 9.13949e-06
16 *526:B1 *526:A1 0.000280435
17 *556:B_N *115:20 5.16418e-05
18 *557:A1 *115:20 0
19 *560:A2 *115:20 5.16418e-05
20 *562:A *115:20 0
21 *562:B *115:20 0
22 *595:D *115:20 0
23 *606:A *115:20 0.000921815
24 *607:A *115:20 0.000153217
25 *78:48 *115:20 0.000579417
26 *80:81 *526:A1 3.82323e-06
27 *80:91 *526:A1 4.87234e-06
28 *94:44 *115:20 0.000205151
29 *104:8 *115:20 0.000207896
30 *107:55 *115:20 0.000209095
*RES
1 *596:Q *115:6 3.6 
2 *115:6 *115:8 0.615 
3 *115:8 *115:20 43.035 
4 *115:20 *526:A1 17.41 
5 *115:8 *510:A 4.05 
6 *115:6 *634:A 8.01 
*END

*D_NET *116 0.00223226
*CONN
*I *509:A I *D sky130_fd_sc_hd__inv_2
*I *635:A I *D sky130_fd_sc_hd__buf_2
*I *616:A I *D sky130_fd_sc_hd__dlygate4sd3_1
*I *597:Q O *D sky130_fd_sc_hd__dfxtp_1
*CAP
1 *509:A 0.000379574
2 *635:A 0.000131708
3 *616:A 0.000250605
4 *597:Q 1.83911e-05
5 *116:8 0.000433589
6 *116:6 0.000449242
7 *616:A *574:B1 4.99619e-05
8 *574:A2 *616:A 8.65961e-05
9 *575:B1 *616:A 9.80032e-06
10 *597:CLK *509:A 7.86176e-05
11 *597:D *509:A 1.43717e-05
12 *99:69 *509:A 0.000292384
13 *104:78 *509:A 3.74161e-05
*RES
1 *597:Q *116:6 1.96 
2 *116:6 *116:8 0.795 
3 *116:8 *616:A 5.845 
4 *116:8 *635:A 7.745 
5 *116:6 *509:A 9.655 
*END

*D_NET *117 0.00174827
*CONN
*I *615:A I *D sky130_fd_sc_hd__dlygate4sd3_1
*I *636:A I *D sky130_fd_sc_hd__buf_2
*I *508:A I *D sky130_fd_sc_hd__inv_2
*I *598:Q O *D sky130_fd_sc_hd__dfxtp_1
*CAP
1 *615:A 5.88376e-05
2 *636:A 0.000299344
3 *508:A 0.000248669
4 *598:Q 0
5 *117:6 0.000548014
6 *117:4 5.88376e-05
7 *615:A *528:A1 0.000142434
8 *530:B1 *636:A 0
9 *598:CLK *508:A 0
10 *598:CLK *636:A 0
11 *617:A *508:A 0
12 *617:A *636:A 0
13 *80:44 *508:A 0.000392136
*RES
1 *598:Q *117:4 1.6 
2 *117:4 *117:6 2 
3 *117:6 *508:A 8.535 
4 *117:6 *636:A 7.65 
5 *117:4 *615:A 3.01 
*END

*D_NET *118 0.00656286
*CONN
*I *507:A I *D sky130_fd_sc_hd__inv_2
*I *637:A I *D sky130_fd_sc_hd__buf_2
*I *532:A1 I *D sky130_fd_sc_hd__o211a_1
*I *570:B1 I *D sky130_fd_sc_hd__o41a_1
*I *599:Q O *D sky130_fd_sc_hd__dfxtp_1
*CAP
1 *507:A 0
2 *637:A 0.000175407
3 *532:A1 9.14346e-05
4 *570:B1 0.000535422
5 *599:Q 0.000103696
6 *118:37 0.000353151
7 *118:33 0.00119458
8 *118:8 0.00174739
9 *532:A1 *136:64 0
10 *637:A *652:A 8.52845e-05
11 *118:33 *527:A 0
12 *118:33 *574:B1 8.33763e-05
13 *118:33 *589:D 0.000149404
14 *118:33 *136:64 1.91597e-05
15 *118:33 *154:10 0.0002014
16 *118:37 *136:64 0.000251422
17 *526:A1 *570:B1 2.75229e-05
18 *527:B *118:33 0
19 *528:B1 *118:33 0
20 *529:B *118:33 0
21 *570:A4 *570:B1 9.53428e-06
22 *573:A1 *570:B1 8.82557e-05
23 *573:A3 *570:B1 0.000241483
24 *573:B1 *570:B1 4.82919e-05
25 *591:D *532:A1 9.03081e-05
26 *600:D *532:A1 0.000161985
27 *79:10 *118:8 0
28 *79:19 *118:8 0
29 *79:19 *118:33 0
30 *80:75 *532:A1 0.000158297
31 *80:75 *637:A 3.09233e-05
32 *80:75 *118:33 4.66108e-05
33 *80:75 *118:37 0.000391354
34 *103:80 *532:A1 0.00016031
35 *115:20 *118:33 0.000116853
*RES
1 *599:Q *118:8 5.235 
2 *118:8 *570:B1 13.035 
3 *118:8 *118:33 21.915 
4 *118:33 *118:37 5.9 
5 *118:37 *532:A1 6.975 
6 *118:37 *637:A 6.795 
7 *118:33 *507:A 1.6 
*END

*D_NET *119 0.0023649
*CONN
*I *638:A I *D sky130_fd_sc_hd__buf_2
*I *506:A I *D sky130_fd_sc_hd__inv_2
*I *620:A I *D sky130_fd_sc_hd__dlygate4sd3_1
*I *600:Q O *D sky130_fd_sc_hd__dfxtp_1
*CAP
1 *638:A 0.000415298
2 *506:A 2.2266e-05
3 *620:A 7.48269e-05
4 *600:Q 6.22102e-05
5 *119:19 0.000482305
6 *119:8 0.000181778
7 *506:A *653:A 4.82919e-05
8 *620:A *533:B 0.000229203
9 *620:A *574:B1 0.000103185
10 *620:A *624:A 0
11 *638:A *646:A 0.000101317
12 *638:A *652:A 0.000234777
13 *119:19 *533:B 8.5242e-05
14 *119:19 *574:B1 3.86607e-05
15 *119:19 *646:A 2.4997e-05
16 adc_out[5] *638:A 8.82557e-05
17 adc_out[7] *638:A 8.8266e-05
18 *103:86 *119:8 8.40213e-05
*RES
1 *600:Q *119:8 4.395 
2 *119:8 *620:A 6.255 
3 *119:8 *119:19 1.38 
4 *119:19 *506:A 4.05 
5 *119:19 *638:A 12.42 
*END

*D_NET *120 0.00827052
*CONN
*I *614:A I *D sky130_fd_sc_hd__buf_2
*I *536:A I *D sky130_fd_sc_hd__nand2_2
*I *628:X O *D sky130_fd_sc_hd__buf_1
*CAP
1 *614:A 0
2 *536:A 0.00179656
3 *628:X 0.00138557
4 *120:14 0.00318213
5 *536:A *574:B1 1.56428e-05
6 *536:A *618:A 2.0248e-05
7 *536:A *649:A 6.00852e-05
8 *536:A *130:12 4.45596e-05
9 *536:A *136:14 5.81172e-05
10 *120:14 *130:12 4.89295e-05
11 *120:14 *130:18 1.99475e-05
12 *515:A *536:A 1.38422e-05
13 *522:A1 *536:A 0.000260145
14 *536:B *536:A 4.66108e-05
15 *587:D *536:A 9.77408e-05
16 *598:CLK *536:A 0.000165305
17 *599:D *536:A 0.000218581
18 *80:25 *536:A 0.000539079
19 *80:44 *536:A 4.21314e-05
20 *103:14 *536:A 2.11084e-05
21 *103:23 *536:A 0.000234183
*RES
1 *628:X *120:14 21.995 
2 *120:14 *536:A 37.155 
3 *120:14 *614:A 1.6 
*END

*D_NET *121 0.000687954
*CONN
*I *639:A I *D sky130_fd_sc_hd__buf_2
*I *513:Y O *D sky130_fd_sc_hd__inv_2
*CAP
1 *639:A 0.000326268
2 *513:Y 0.000326268
3 *627:A *639:A 8.7152e-06
4 *109:12 *639:A 2.67022e-05
*RES
1 *513:Y *639:A 11.355 
*END

*D_NET *122 0.00299325
*CONN
*I *640:A I *D sky130_fd_sc_hd__buf_2
*I *548:B1 I *D sky130_fd_sc_hd__a21o_1
*I *512:Y O *D sky130_fd_sc_hd__inv_2
*CAP
1 *640:A 0.000795986
2 *548:B1 0.000488479
3 *512:Y 0
4 *122:4 0.00128446
5 dac_in_n[1] *640:A 4.9253e-06
6 *548:A1 *548:B1 8.49205e-05
7 *548:A2 *548:B1 4.82919e-05
8 *594:D *548:B1 7.36892e-05
9 *632:A *548:B1 4.99619e-05
10 *632:A *640:A 0
11 *104:94 *548:B1 7.02628e-05
12 *113:27 *548:B1 9.22715e-05
*RES
1 *512:Y *122:4 1.6 
2 *122:4 *548:B1 10.585 
3 *122:4 *640:A 17.615 
*END

*D_NET *123 0.000844412
*CONN
*I *641:A I *D sky130_fd_sc_hd__buf_2
*I *511:Y O *D sky130_fd_sc_hd__inv_2
*CAP
1 *641:A 0.000375364
2 *511:Y 0.000375364
3 dac_in[2] *641:A 5.83121e-06
4 dac_in_n[2] *641:A 7.00889e-06
5 *633:A *641:A 8.08439e-05
*RES
1 *511:Y *641:A 13.425 
*END

*D_NET *124 0.00140704
*CONN
*I *642:A I *D sky130_fd_sc_hd__buf_2
*I *558:B1 I *D sky130_fd_sc_hd__a21oi_1
*I *510:Y O *D sky130_fd_sc_hd__inv_2
*CAP
1 *642:A 0.000279181
2 *558:B1 0.000204078
3 *510:Y 0
4 *124:6 0.00048326
5 *558:A1 *558:B1 0.000124895
6 *595:D *558:B1 0
7 *634:A *642:A 9.24049e-05
8 *94:33 *558:B1 0.000122331
9 *115:8 *558:B1 4.43871e-06
10 *115:8 *642:A 2.34423e-05
11 *115:20 *558:B1 7.30055e-05
*RES
1 *510:Y *124:6 3.6 
2 *124:6 *558:B1 7.41 
3 *124:6 *642:A 8.52 
*END

*D_NET *125 0.00120887
*CONN
*I *643:A I *D sky130_fd_sc_hd__buf_2
*I *564:B1 I *D sky130_fd_sc_hd__a21o_1
*I *509:Y O *D sky130_fd_sc_hd__inv_2
*CAP
1 *643:A 0.000249354
2 *564:B1 0.000155895
3 *509:Y 0
4 *125:6 0.000405249
5 *564:A1 *564:B1 7.19795e-05
6 *565:A1 *564:B1 2.49909e-05
7 *565:A2 *564:B1 0.000163199
8 *565:A3 *564:B1 4.99619e-05
9 *596:D *564:B1 0
10 *596:D *643:A 0
11 *597:D *564:B1 8.34281e-06
12 *104:69 *564:B1 4.75576e-05
13 *104:69 *643:A 3.23391e-05
*RES
1 *509:Y *125:6 3.6 
2 *125:6 *564:B1 7.26 
3 *125:6 *643:A 7.65 
*END

*D_NET *126 0.00161625
*CONN
*I *566:B1 I *D sky130_fd_sc_hd__a21o_1
*I *644:A I *D sky130_fd_sc_hd__buf_2
*I *508:Y O *D sky130_fd_sc_hd__inv_2
*CAP
1 *566:B1 0.000228925
2 *644:A 0.000241544
3 *508:Y 0.000119793
4 *126:6 0.000590262
5 *644:A *574:B1 0.000112123
6 *574:A2 *566:B1 1.52945e-05
7 *575:A1 *566:B1 0.000232999
8 *575:A2 *126:6 5.05521e-05
9 *575:B1 *566:B1 0
10 *598:CLK *644:A 0
11 *600:D *126:6 2.19562e-06
12 *60:23 *566:B1 4.18603e-06
13 *80:44 *126:6 1.83756e-05
*RES
1 *508:Y *126:6 3.085 
2 *126:6 *644:A 9.725 
3 *126:6 *566:B1 8.735 
*END

*D_NET *127 0.000378304
*CONN
*I *645:A I *D sky130_fd_sc_hd__buf_2
*I *507:Y O *D sky130_fd_sc_hd__inv_2
*CAP
1 *645:A 0.000132976
2 *507:Y 0.000132976
3 *645:A *154:10 5.92849e-05
4 *80:75 *645:A 5.30673e-05
*RES
1 *507:Y *645:A 9.63 
*END

*D_NET *128 0.00770998
*CONN
*I *646:A I *D sky130_fd_sc_hd__buf_2
*I *574:B1 I *D sky130_fd_sc_hd__a21oi_1
*I *506:Y O *D sky130_fd_sc_hd__inv_2
*CAP
1 *646:A 0.000155881
2 *574:B1 0.002462
3 *506:Y 0
4 *128:6 0.00261789
5 *574:B1 *589:D 4.82971e-05
6 *574:B1 *624:A 9.91888e-05
7 *574:B1 *651:A 0.00102089
8 *574:B1 *153:6 0.000163204
9 *646:A *624:A 4.18603e-06
10 *646:A *652:A 4.82863e-05
11 *536:A *574:B1 1.56428e-05
12 *536:B *574:B1 1.17309e-05
13 *575:A2 *574:B1 5.21627e-05
14 *575:B1 *574:B1 0.000142669
15 *591:CLK *646:A 0
16 *598:CLK *574:B1 0
17 *598:D *574:B1 0.000313215
18 *616:A *574:B1 4.99619e-05
19 *620:A *574:B1 0.000103185
20 *638:A *646:A 0.000101317
21 *644:A *574:B1 0.000112123
22 *69:8 *574:B1 3.82323e-06
23 *90:6 *574:B1 3.72916e-05
24 *118:33 *574:B1 8.33763e-05
25 *119:19 *574:B1 3.86607e-05
26 *119:19 *646:A 2.4997e-05
*RES
1 *506:Y *128:6 3.6 
2 *128:6 *574:B1 42.775 
3 *128:6 *646:A 6.96 
*END

*D_NET *129 0.0103953
*CONN
*I *549:D I *D sky130_fd_sc_hd__and4bb_1
*I *541:A I *D sky130_fd_sc_hd__nand4_1
*I *539:A I *D sky130_fd_sc_hd__nand3_1
*I *578:A1 I *D sky130_fd_sc_hd__a21o_1
*I *538:A I *D sky130_fd_sc_hd__and3_1
*I *554:C_N I *D sky130_fd_sc_hd__nor3b_2
*I *545:C I *D sky130_fd_sc_hd__and3b_1
*I *576:A I *D sky130_fd_sc_hd__or2_1
*I *537:A I *D sky130_fd_sc_hd__nand2_1
*I *516:A_N I *D sky130_fd_sc_hd__and2b_1
*I *609:X O *D sky130_fd_sc_hd__clkbuf_2
*CAP
1 *549:D 9.44911e-05
2 *541:A 0.000367894
3 *539:A 0
4 *578:A1 0.000169329
5 *538:A 0
6 *554:C_N 2.08101e-05
7 *545:C 0
8 *576:A 6.91671e-05
9 *537:A 2.08101e-05
10 *516:A_N 0.000202622
11 *609:X 0.000211824
12 *129:116 0.000557446
13 *129:105 0.000185053
14 *129:84 0.000544327
15 *129:73 0.000691895
16 *129:60 0.000518325
17 *129:53 0.00039607
18 *129:38 0.000421086
19 *129:27 0.000356785
20 *129:10 0.000703948
21 *516:A_N *516:B 0
22 *541:A *541:D 3.09643e-05
23 *549:D *135:95 0
24 *554:C_N *135:27 0
25 *554:C_N *135:31 0
26 *576:A *576:B 4.19967e-05
27 *578:A1 *578:B1 4.82919e-05
28 *129:27 *517:D_N 0.000331548
29 *129:27 *518:D_N 3.83041e-05
30 *129:27 *135:61 1.61831e-05
31 *129:38 *135:61 3.45588e-05
32 *129:53 *576:B 9.3062e-06
33 *129:53 *135:37 0.000177772
34 *129:53 *135:39 1.80031e-05
35 *129:60 *135:31 3.00381e-05
36 *129:60 *135:37 9.21168e-05
37 *129:73 *135:14 2.45107e-05
38 *129:73 *135:27 0.000235564
39 *129:73 *135:31 9.0716e-05
40 *129:73 *135:89 2.0514e-05
41 *129:84 *135:89 0.000308713
42 *129:84 *135:95 0
43 *129:105 *539:C 0.00011407
44 *129:105 *541:D 1.08758e-05
45 *129:116 *541:D 0.000205925
46 *129:116 *135:95 0
47 *562:B *129:84 0.000149776
48 *573:B1 *516:A_N 5.53249e-06
49 *573:B1 *129:10 9.02726e-05
50 *577:B *129:38 3.54025e-05
51 *577:C *576:A 3.86529e-05
52 *578:A2 *578:A1 0.000119219
53 *578:A2 *129:84 6.6228e-05
54 *579:C *578:A1 0.000245893
55 *580:B *541:A 0.000122337
56 *580:B *129:105 4.54919e-05
57 *580:B *129:116 0.000353049
58 *581:C *541:A 0.000465841
59 *584:D *516:A_N 0
60 *601:D *576:A 0
61 *609:A *129:10 3.1835e-05
62 *80:8 *129:27 0.000275553
63 *89:22 *516:A_N 5.21046e-05
64 *89:22 *537:A 0
65 *89:22 *129:27 0.000352161
66 *89:22 *129:38 0.000187281
67 *89:37 *578:A1 0
68 *89:37 *129:84 0
69 *89:65 *129:105 4.66108e-05
70 *89:79 *578:A1 0.000139245
71 *91:10 *129:53 0
72 *93:6 *129:105 4.16445e-05
73 *95:6 *541:A 3.00381e-05
74 *99:10 *129:53 0
75 *105:10 *578:A1 0
76 *111:8 *516:A_N 0
77 *111:8 *129:10 0
78 *114:34 *549:D 6.67238e-05
79 *114:34 *129:116 2.25119e-05
*RES
1 *609:X *129:10 6.885 
2 *129:10 *516:A_N 7.02 
3 *129:10 *129:27 8.78 
4 *129:27 *537:A 1.96 
5 *129:27 *129:38 3.83 
6 *129:38 *576:A 4.98 
7 *129:38 *129:53 7.085 
8 *129:53 *545:C 1.6 
9 *129:53 *129:60 1.83 
10 *129:60 *554:C_N 1.96 
11 *129:60 *129:73 5.655 
12 *129:73 *538:A 1.6 
13 *129:73 *129:84 7.52 
14 *129:84 *578:A1 8.235 
15 *129:84 *129:105 4.655 
16 *129:105 *539:A 1.6 
17 *129:105 *129:116 5.825 
18 *129:116 *541:A 10.725 
19 *129:116 *549:D 5.235 
*END

*D_NET *130 0.00721667
*CONN
*I *525:B I *D sky130_fd_sc_hd__or2_1
*I *519:B I *D sky130_fd_sc_hd__or2_1
*I *533:B I *D sky130_fd_sc_hd__or2_1
*I *531:B I *D sky130_fd_sc_hd__or2_1
*I *521:B I *D sky130_fd_sc_hd__or2_1
*I *654:X O *D sky130_fd_sc_hd__buf_1
*CAP
1 *525:B 0.000158297
2 *519:B 0
3 *533:B 0.000533471
4 *531:B 2.75175e-05
5 *521:B 0.000310467
6 *654:X 0
7 *130:33 0.000977258
8 *130:18 0.00121633
9 *130:12 0.000845583
10 *130:6 0.000514286
11 *521:B *521:A 4.99619e-05
12 *521:B *622:A 9.70988e-05
13 *525:B *525:A 4.82863e-05
14 *525:B *626:A 0
15 *525:B *651:A 1.34594e-05
16 *533:B *531:A 0
17 *533:B *592:D 0.000163204
18 *533:B *653:A 0.000242494
19 *130:12 *526:C1 0.00014483
20 *130:12 *136:6 4.88258e-05
21 *130:12 *136:10 0.00021777
22 *130:12 *136:40 0
23 *130:18 *519:A 0.000125264
24 *130:18 *520:C1 3.00381e-05
25 *130:18 *623:A 5.05521e-05
26 *130:33 *520:C1 3.24385e-05
27 *130:33 *623:A 8.09021e-06
28 *520:A2 *130:33 8.8086e-05
29 *520:B1 *521:B 2.75145e-05
30 *520:B1 *130:18 0.000125293
31 *522:A1 *130:33 3.99395e-05
32 *522:B1 *521:B 9.79922e-05
33 *522:B1 *130:33 0.000135896
34 *534:B1 *533:B 8.65905e-05
35 *536:A *130:12 4.45596e-05
36 *585:CLK *130:33 0
37 *588:CLK *531:B 2.75229e-05
38 *588:D *130:33 0
39 *620:A *533:B 0.000229203
40 *621:A *533:B 0.00012794
41 *80:81 *525:B 0.000111679
42 *80:81 *130:12 6.48137e-05
43 *80:91 *130:33 0
44 *103:90 *533:B 0
45 *103:90 *130:33 0
46 *103:92 *130:33 0
47 *119:19 *533:B 8.5242e-05
48 *120:14 *130:12 4.89295e-05
49 *120:14 *130:18 1.99475e-05
*RES
1 *654:X *130:6 3.6 
2 *130:6 *130:12 9.455 
3 *130:12 *130:18 6.69 
4 *130:18 *521:B 7.225 
5 *130:18 *130:33 9.545 
6 *130:33 *531:B 4.05 
7 *130:33 *533:B 15.165 
8 *130:12 *519:B 1.6 
9 *130:6 *525:B 6.795 
*END

*D_NET *131 0.00172071
*CONN
*I *623:A I *D sky130_fd_sc_hd__dlygate4sd3_1
*I *647:A I *D sky130_fd_sc_hd__buf_2
*I *585:Q O *D sky130_fd_sc_hd__dfxtp_1
*CAP
1 *623:A 0.00011201
2 *647:A 0.000524407
3 *585:Q 0
4 *131:4 0.000636417
5 *623:A *520:C1 8.53113e-06
6 *520:B1 *623:A 8.65961e-05
7 *585:CLK *623:A 0
8 *585:CLK *647:A 0.000294109
9 *130:18 *623:A 5.05521e-05
10 *130:33 *623:A 8.09021e-06
*RES
1 *585:Q *131:4 1.6 
2 *131:4 *647:A 8.185 
3 *131:4 *623:A 7.775 
*END

*D_NET *132 0.0115199
*CONN
*I *540:A_N I *D sky130_fd_sc_hd__and2b_1
*I *550:A I *D sky130_fd_sc_hd__or4_1
*I *553:A1 I *D sky130_fd_sc_hd__o41a_1
*I *559:A I *D sky130_fd_sc_hd__nor2_2
*I *518:D_N I *D sky130_fd_sc_hd__or4b_4
*I *517:D_N I *D sky130_fd_sc_hd__nor4b_1
*I *567:A I *D sky130_fd_sc_hd__or4_1
*I *570:A1 I *D sky130_fd_sc_hd__o41a_1
*I *582:A I *D sky130_fd_sc_hd__nand2_1
*I *543:A1 I *D sky130_fd_sc_hd__o21a_1
*I *610:X O *D sky130_fd_sc_hd__buf_2
*CAP
1 *540:A_N 0
2 *550:A 0
3 *553:A1 0
4 *559:A 0
5 *518:D_N 9.10537e-06
6 *517:D_N 6.17749e-05
7 *567:A 0
8 *570:A1 3.76214e-05
9 *582:A 0.000117763
10 *543:A1 0.000221538
11 *610:X 0.000321343
12 *132:84 0.000221941
13 *132:66 7.57729e-05
14 *132:62 0.000507682
15 *132:54 0.00118246
16 *132:46 0.0009942
17 *132:38 0.000307326
18 *132:36 0.000199668
19 *132:10 0.000382288
20 *132:8 0.000386884
21 *517:D_N *517:B 1.46744e-05
22 *517:D_N *133:56 0.0001249
23 *517:D_N *135:61 2.05056e-05
24 *518:D_N *135:61 2.75229e-05
25 *570:A1 *570:A3 0.000198051
26 *132:38 *541:C 0.000123225
27 *132:46 *541:C 6.95505e-05
28 *132:66 *570:A3 3.00399e-05
29 *132:84 *133:56 0.000130852
30 *132:84 *133:74 0.000203179
31 *132:84 *135:37 0
32 *132:84 *135:39 0
33 *517:A *517:D_N 0.000203178
34 *518:A *517:D_N 3.83041e-05
35 *520:A1 *543:A1 1.88602e-05
36 *540:B *132:38 0.00033637
37 *542:B *543:A1 1.1561e-05
38 *542:B *132:10 6.36578e-05
39 *542:B *132:36 4.20983e-05
40 *546:B1 *543:A1 6.73751e-05
41 *546:B1 *132:10 4.49328e-05
42 *546:B1 *132:36 2.84137e-05
43 *546:D1 *543:A1 0
44 *547:A2 *543:A1 0
45 *549:A_N *132:8 0.000240168
46 *549:A_N *132:38 0.000843312
47 *570:A4 *132:62 1.19928e-05
48 *570:A4 *132:66 1.19928e-05
49 *572:A1 *132:54 0.000143782
50 *572:B1 *132:54 4.82863e-05
51 *573:A3 *570:A1 0.00016004
52 *573:A3 *132:54 0.000582566
53 *573:A3 *132:62 0.000371856
54 *573:A3 *132:66 9.61248e-05
55 *583:A2 *582:A 3.00381e-05
56 *593:D *543:A1 5.30673e-05
57 *605:A *132:84 0
58 *78:29 *132:46 0.000130453
59 *78:29 *132:54 0.000344459
60 *80:8 *517:D_N 8.8266e-05
61 *91:10 *132:84 0.000243162
62 *91:23 *132:84 4.54719e-05
63 *91:42 *132:84 2.14129e-05
64 *95:12 *543:A1 4.82919e-05
65 *95:23 *543:A1 0.000183458
66 *107:34 *132:46 0.000160658
67 *107:49 *132:46 5.16418e-05
68 *114:24 *132:46 0.000234674
69 *114:24 *132:54 0.000180243
70 *129:27 *517:D_N 0.000331548
71 *129:27 *518:D_N 3.83041e-05
*RES
1 *610:X *132:8 7.845 
2 *132:8 *132:10 1.38 
3 *132:10 *543:A1 8.58 
4 *132:10 *582:A 5.445 
5 *132:8 *132:36 2.87 
6 *132:36 *132:38 7.695 
7 *132:38 *132:46 8.575 
8 *132:46 *132:54 17.49 
9 *132:54 *132:62 6.18 
10 *132:62 *132:66 1.155 
11 *132:66 *570:A1 3.43 
12 *132:66 *567:A 1.6 
13 *132:62 *132:84 8.44 
14 *132:84 *517:D_N 5.5 
15 *132:84 *518:D_N 2.05 
16 *132:54 *559:A 1.6 
17 *132:46 *553:A1 1.6 
18 *132:38 *550:A 1.6 
19 *132:36 *540:A_N 1.6 
*END

*D_NET *133 0.0103044
*CONN
*I *541:C I *D sky130_fd_sc_hd__nand4_1
*I *550:C I *D sky130_fd_sc_hd__or4_1
*I *553:A3 I *D sky130_fd_sc_hd__o41a_1
*I *538:B I *D sky130_fd_sc_hd__and3_1
*I *567:C I *D sky130_fd_sc_hd__or4_1
*I *570:A3 I *D sky130_fd_sc_hd__o41a_1
*I *518:B I *D sky130_fd_sc_hd__or4b_4
*I *517:B I *D sky130_fd_sc_hd__nor4b_1
*I *545:B I *D sky130_fd_sc_hd__and3b_1
*I *554:A I *D sky130_fd_sc_hd__nor3b_2
*I *611:X O *D sky130_fd_sc_hd__buf_2
*CAP
1 *541:C 0.000424976
2 *550:C 0
3 *553:A3 0
4 *538:B 0
5 *567:C 0
6 *570:A3 9.55672e-05
7 *518:B 0
8 *517:B 7.62234e-05
9 *545:B 0
10 *554:A 2.75414e-05
11 *611:X 0.000114584
12 *133:106 0.00050243
13 *133:74 0.000185248
14 *133:56 0.000188998
15 *133:48 0.000530648
16 *133:37 0.000761781
17 *133:35 0.000469049
18 *133:24 0.000531897
19 *133:14 0.000544212
20 *133:10 0.000267356
21 *517:B *517:C 0.00038057
22 *554:A *538:C 9.37348e-06
23 *554:A *135:14 2.25301e-05
24 *554:A *135:27 5.77173e-05
25 *554:A *135:31 1.23763e-05
26 *133:24 *134:14 0.000366208
27 *133:24 *134:20 0.000127651
28 *133:24 *135:14 4.99619e-05
29 *133:24 *135:89 0.000524317
30 *133:37 *135:27 3.43427e-05
31 *133:37 *135:31 0.000158681
32 *133:37 *135:37 9.21168e-05
33 *133:48 *135:37 0.000349598
34 *133:56 *517:C 2.37179e-05
35 *133:56 *135:61 8.65905e-05
36 *517:A *517:B 0.000238137
37 *517:D_N *517:B 1.46744e-05
38 *517:D_N *133:56 0.0001249
39 *518:A *517:B 4.82919e-05
40 *540:B *541:C 0.00015896
41 *546:A2 *541:C 0
42 *546:D1 *541:C 0
43 *549:A_N *541:C 4.0843e-05
44 *549:A_N *133:10 5.4003e-05
45 *549:A_N *133:14 1.7902e-05
46 *549:A_N *133:106 0.00010804
47 *550:B *133:14 6.45236e-05
48 *550:B *133:106 2.05056e-05
49 *557:A1 *133:10 0
50 *557:A1 *133:14 3.90266e-05
51 *557:A1 *133:24 2.97004e-06
52 *557:A3 *133:10 5.82992e-05
53 *570:A1 *570:A3 0.000198051
54 *570:A4 *570:A3 0.000382281
55 *573:A3 *570:A3 4.85494e-05
56 *581:C *541:C 1.37804e-05
57 *605:A *133:56 4.05454e-05
58 *605:A *133:74 7.38635e-05
59 *52:10 *133:24 4.99619e-05
60 *76:19 *133:24 0.000155928
61 *76:32 *133:14 9.50342e-06
62 *76:32 *133:24 4.31106e-05
63 *78:12 *541:C 0
64 *78:48 *133:24 0
65 *80:8 *517:B 1.47256e-05
66 *91:42 *133:24 1.7635e-05
67 *98:10 *133:24 4.99619e-05
68 *105:14 *133:24 0.000197633
69 *105:27 *133:24 4.21973e-05
70 *107:21 *541:C 0
71 *107:34 *541:C 0
72 *107:49 *133:106 8.34281e-06
73 *107:55 *133:106 3.64998e-06
74 *109:22 *133:106 0.000158066
75 *114:24 *541:C 0.000160658
76 *114:34 *133:24 7.17811e-05
77 *132:38 *541:C 0.000123225
78 *132:46 *541:C 6.95505e-05
79 *132:66 *570:A3 3.00399e-05
80 *132:84 *133:56 0.000130852
81 *132:84 *133:74 0.000203179
*RES
1 *611:X *133:10 5.685 
2 *133:10 *133:14 1.83 
3 *133:14 *133:24 14.885 
4 *133:24 *554:A 3.1 
5 *133:24 *133:35 0.615 
6 *133:35 *133:37 5.97 
7 *133:37 *545:B 1.6 
8 *133:37 *133:48 7.295 
9 *133:48 *133:56 5.135 
10 *133:56 *517:B 5.17 
11 *133:56 *518:B 1.6 
12 *133:48 *133:74 4.4 
13 *133:74 *570:A3 5.53 
14 *133:74 *567:C 1.6 
15 *133:35 *538:B 1.6 
16 *133:14 *553:A3 3.6 
17 *133:10 *133:106 4.175 
18 *133:106 *550:C 1.6 
19 *133:106 *541:C 13.655 
*END

*D_NET *134 0.00404397
*CONN
*I *546:C1 I *D sky130_fd_sc_hd__o2111a_1
*I *549:B_N I *D sky130_fd_sc_hd__and4bb_1
*I *544:B I *D sky130_fd_sc_hd__and2b_1
*I *539:B I *D sky130_fd_sc_hd__nand3_1
*I *578:B1 I *D sky130_fd_sc_hd__a21o_1
*I *612:X O *D sky130_fd_sc_hd__buf_1
*CAP
1 *546:C1 0.000399284
2 *549:B_N 0
3 *544:B 0
4 *539:B 0
5 *578:B1 0.000329581
6 *612:X 0
7 *134:20 0.000462883
8 *134:14 0.000287001
9 *134:8 0.00029245
10 *134:4 0.000538035
11 *578:B1 *135:95 5.16418e-05
12 *134:20 *135:95 0.000152889
13 *504:A *546:C1 4.82919e-05
14 *504:A *134:8 0
15 *504:A *134:14 0
16 *505:A *546:C1 9.79922e-05
17 *505:A *134:14 4.07182e-05
18 *546:A1 *546:C1 4.85494e-05
19 *546:B1 *546:C1 3.4687e-05
20 *549:C *134:14 4.82863e-05
21 *578:A1 *578:B1 4.82919e-05
22 *578:A2 *578:B1 0.000182104
23 *578:A2 *134:20 6.17893e-05
24 *579:C *578:B1 7.00889e-06
25 *76:8 *546:C1 2.59835e-05
26 *76:8 *134:8 5.91029e-05
27 *76:8 *134:14 4.66108e-05
28 *105:27 *134:14 8.79923e-05
29 *105:27 *134:20 0.000198939
30 *133:24 *134:14 0.000366208
31 *133:24 *134:20 0.000127651
*RES
1 *612:X *134:4 1.6 
2 *134:4 *134:8 1.845 
3 *134:8 *134:14 4.875 
4 *134:14 *134:20 5.72 
5 *134:20 *578:B1 9.72 
6 *134:20 *539:B 3.6 
7 *134:14 *544:B 1.6 
8 *134:8 *549:B_N 1.6 
9 *134:4 *546:C1 6.88 
*END

*D_NET *135 0.00826471
*CONN
*I *544:A_N I *D sky130_fd_sc_hd__and2b_1
*I *541:D I *D sky130_fd_sc_hd__nand4_1
*I *539:C I *D sky130_fd_sc_hd__nand3_1
*I *554:B I *D sky130_fd_sc_hd__nor3b_2
*I *545:A_N I *D sky130_fd_sc_hd__and3b_1
*I *517:C I *D sky130_fd_sc_hd__nor4b_1
*I *518:C I *D sky130_fd_sc_hd__or4b_4
*I *537:B I *D sky130_fd_sc_hd__nand2_1
*I *576:B I *D sky130_fd_sc_hd__or2_1
*I *538:C I *D sky130_fd_sc_hd__and3_1
*I *613:X O *D sky130_fd_sc_hd__buf_2
*CAP
1 *544:A_N 0
2 *541:D 0.000532292
3 *539:C 0.000108073
4 *554:B 0
5 *545:A_N 0
6 *517:C 0.000332509
7 *518:C 0
8 *537:B 0
9 *576:B 0.000124997
10 *538:C 2.17069e-06
11 *613:X 5.18595e-05
12 *135:95 0.000829211
13 *135:89 0.000331802
14 *135:61 0.000437106
15 *135:39 0.000157338
16 *135:37 0.00034232
17 *135:31 0.000275022
18 *135:27 0.000138939
19 *135:14 9.05406e-05
20 *135:10 0.000213887
21 *517:B *517:C 0.00038057
22 *517:D_N *135:61 2.05056e-05
23 *518:D_N *135:61 2.75229e-05
24 *541:A *541:D 3.09643e-05
25 *541:B *541:D 4.35432e-05
26 *549:D *135:95 0
27 *554:A *538:C 9.37348e-06
28 *554:A *135:14 2.25301e-05
29 *554:A *135:27 5.77173e-05
30 *554:A *135:31 1.23763e-05
31 *554:C_N *135:27 0
32 *554:C_N *135:31 0
33 *576:A *576:B 4.19967e-05
34 *577:B *135:61 3.66286e-05
35 *578:B1 *135:95 5.16418e-05
36 *580:B *541:D 4.83736e-05
37 *581:C *541:D 0.000391946
38 *605:A *576:B 0
39 *613:A *135:10 6.28843e-05
40 *80:8 *517:C 1.33293e-05
41 *91:10 *135:37 3.47982e-05
42 *91:10 *135:61 8.8266e-05
43 *92:10 *135:10 4.32126e-05
44 *114:34 *576:B 1.7386e-05
45 *129:27 *135:61 1.61831e-05
46 *129:38 *135:61 3.45588e-05
47 *129:53 *576:B 9.3062e-06
48 *129:53 *135:37 0.000177772
49 *129:53 *135:39 1.80031e-05
50 *129:60 *135:31 3.00381e-05
51 *129:60 *135:37 9.21168e-05
52 *129:73 *135:14 2.45107e-05
53 *129:73 *135:27 0.000235564
54 *129:73 *135:31 9.0716e-05
55 *129:73 *135:89 2.0514e-05
56 *129:84 *135:89 0.000308713
57 *129:84 *135:95 0
58 *129:105 *539:C 0.00011407
59 *129:105 *541:D 1.08758e-05
60 *129:116 *541:D 0.000205925
61 *129:116 *135:95 0
62 *132:84 *135:37 0
63 *132:84 *135:39 0
64 *133:24 *135:14 4.99619e-05
65 *133:24 *135:89 0.000524317
66 *133:37 *135:27 3.43427e-05
67 *133:37 *135:31 0.000158681
68 *133:37 *135:37 9.21168e-05
69 *133:48 *135:37 0.000349598
70 *133:56 *517:C 2.37179e-05
71 *133:56 *135:61 8.65905e-05
72 *134:20 *135:95 0.000152889
*RES
1 *613:X *135:10 6.98 
2 *135:10 *135:14 0.7425 
3 *135:14 *538:C 1.8175 
4 *135:14 *135:27 2.7075 
5 *135:27 *135:31 2.88 
6 *135:31 *135:37 8.225 
7 *135:37 *135:39 0.615 
8 *135:39 *576:B 5.685 
9 *135:39 *537:B 3.6 
10 *135:37 *135:61 4.52 
11 *135:61 *518:C 1.6 
12 *135:61 *517:C 6.475 
13 *135:31 *545:A_N 1.6 
14 *135:27 *554:B 1.6 
15 *135:10 *135:89 4.935 
16 *135:89 *135:95 6.91 
17 *135:95 *539:C 3.1 
18 *135:95 *541:D 10.705 
19 *135:89 *544:A_N 1.6 
*END

*D_NET *136 0.0142657
*CONN
*I *535:A I *D sky130_fd_sc_hd__and2_2
*I *516:B I *D sky130_fd_sc_hd__and2b_1
*I *524:C1 I *D sky130_fd_sc_hd__o211a_1
*I *526:C1 I *D sky130_fd_sc_hd__o211a_1
*I *530:C1 I *D sky130_fd_sc_hd__o211a_1
*I *528:C1 I *D sky130_fd_sc_hd__o211a_1
*I *532:C1 I *D sky130_fd_sc_hd__o211a_1
*I *534:C1 I *D sky130_fd_sc_hd__o211a_1
*I *522:C1 I *D sky130_fd_sc_hd__o211a_1
*I *520:C1 I *D sky130_fd_sc_hd__o211a_1
*I *614:X O *D sky130_fd_sc_hd__buf_2
*CAP
1 *535:A 2.608e-05
2 *516:B 0.00022936
3 *524:C1 0
4 *526:C1 0.000123498
5 *530:C1 0.000632473
6 *528:C1 2.9682e-05
7 *532:C1 0
8 *534:C1 0.000135477
9 *522:C1 0
10 *520:C1 0.000151054
11 *614:X 6.53252e-05
12 *136:116 0.000689615
13 *136:103 0.00124186
14 *136:64 0.00135344
15 *136:51 0.000813082
16 *136:40 0.000643497
17 *136:16 0.000356965
18 *136:14 0.000701946
19 *136:10 0.000375436
20 *136:6 0.00101514
21 *516:B *584:CLK 0
22 *530:C1 *590:D 2.46089e-05
23 *534:C1 *534:A1 4.99619e-05
24 *534:C1 *624:A 0.000313617
25 *534:C1 *651:A 0.00028177
26 *535:A *584:CLK 0
27 *136:14 *649:A 0.000177198
28 *136:16 *649:A 4.88478e-05
29 *136:40 *531:A 0
30 *136:40 *626:A 0.000227536
31 *136:40 *649:A 4.46271e-05
32 *136:51 *624:A 0
33 *136:51 *626:A 8.53113e-06
34 *136:64 *624:A 0
35 *136:116 *584:CLK 8.65961e-05
36 *515:A *535:A 1.70935e-05
37 *515:A *136:116 4.12992e-05
38 *516:A_N *516:B 0
39 *520:A1 *136:103 0.000156762
40 *520:A1 *136:116 0.00017194
41 *520:B1 *520:C1 4.82863e-05
42 *522:B1 *520:C1 0.000135896
43 *524:A2 *136:103 2.66072e-05
44 *524:A2 *136:116 0.000467984
45 *524:B1 *136:103 3.00381e-05
46 *526:B1 *526:C1 0.000196045
47 *530:A2 *530:C1 4.00541e-06
48 *532:A1 *136:64 0
49 *532:B1 *136:51 0.000106885
50 *532:B1 *136:64 5.53249e-06
51 *534:A2 *534:C1 0.000842799
52 *536:A *136:14 5.81172e-05
53 *573:B1 *535:A 0
54 *584:D *516:B 0.000139238
55 *591:CLK *136:64 7.20869e-05
56 *591:D *136:64 0.000146845
57 *623:A *520:C1 8.53113e-06
58 *80:12 *535:A 5.53249e-06
59 *80:44 *530:C1 4.92935e-05
60 *80:62 *528:C1 1.37328e-05
61 *80:62 *530:C1 0.000179858
62 *80:75 *530:C1 4.43682e-05
63 *80:75 *136:64 3.09179e-05
64 *80:81 *526:C1 0.000162312
65 *80:91 *520:C1 4.82919e-05
66 *80:91 *136:16 0.000227359
67 *89:22 *516:B 0
68 *103:80 *530:C1 0.000236355
69 *118:33 *136:64 1.91597e-05
70 *118:37 *136:64 0.000251422
71 *130:12 *526:C1 0.00014483
72 *130:12 *136:6 4.88258e-05
73 *130:12 *136:10 0.00021777
74 *130:12 *136:40 0
75 *130:18 *520:C1 3.00381e-05
76 *130:33 *520:C1 3.24385e-05
*RES
1 *614:X *136:6 2.395 
2 *136:6 *136:10 4.91 
3 *136:10 *136:14 4.865 
4 *136:14 *136:16 3.9 
5 *136:16 *520:C1 8.9 
6 *136:16 *522:C1 1.6 
7 *136:14 *136:40 7.97 
8 *136:40 *534:C1 11.295 
9 *136:40 *136:51 2.4 
10 *136:51 *532:C1 3.6 
11 *136:51 *136:64 11.075 
12 *136:64 *528:C1 2.215 
13 *136:64 *530:C1 14.195 
14 *136:10 *526:C1 7.32 
15 *136:6 *136:103 9.345 
16 *136:103 *524:C1 1.6 
17 *136:103 *136:116 11.105 
18 *136:116 *516:B 7.56 
19 *136:116 *535:A 4.215 
*END

*D_NET *137 0.000491605
*CONN
*I *584:CLK I *D sky130_fd_sc_hd__dfxtp_1
*I *515:Y O *D sky130_fd_sc_hd__inv_2
*CAP
1 *584:CLK 0.00015022
2 *515:Y 0.00015022
3 *515:A *584:CLK 1.79722e-05
4 *516:B *584:CLK 0
5 *524:A2 *584:CLK 8.65961e-05
6 *535:A *584:CLK 0
7 *136:116 *584:CLK 8.65961e-05
*RES
1 *515:Y *584:CLK 10.14 
*END

*D_NET *138 0.000215136
*CONN
*I *530:A1 I *D sky130_fd_sc_hd__o211a_1
*I *615:X O *D sky130_fd_sc_hd__dlygate4sd3_1
*CAP
1 *530:A1 4.28166e-05
2 *615:X 4.28166e-05
3 *529:B *530:A1 6.47516e-05
4 *530:B1 *530:A1 6.47516e-05
*RES
1 *615:X *530:A1 8.58 
*END

*D_NET *139 0.000363632
*CONN
*I *590:D I *D sky130_fd_sc_hd__dfxtp_1
*I *619:X O *D sky130_fd_sc_hd__dlygate4sd3_1
*CAP
1 *590:D 0.00010576
2 *619:X 0.00010576
3 *530:C1 *590:D 2.46089e-05
4 *600:D *590:D 6.50844e-06
5 *617:A *590:D 4.82863e-05
6 *80:62 *590:D 5.83373e-05
7 *103:80 *590:D 1.43717e-05
*RES
1 *619:X *590:D 9.16875 
*END

*D_NET *140 0.000442593
*CONN
*I *534:A1 I *D sky130_fd_sc_hd__o211a_1
*I *620:X O *D sky130_fd_sc_hd__dlygate4sd3_1
*CAP
1 *534:A1 5.6697e-05
2 *620:X 5.6697e-05
3 *534:A1 *651:A 0.000200615
4 *534:A2 *534:A1 7.86219e-05
5 *534:C1 *534:A1 4.99619e-05
*RES
1 *620:X *534:A1 5.39 
*END

*D_NET *141 0.000560581
*CONN
*I *592:D I *D sky130_fd_sc_hd__dfxtp_1
*I *621:X O *D sky130_fd_sc_hd__dlygate4sd3_1
*CAP
1 *592:D 0.000172644
2 *621:X 0.000172644
3 *533:B *592:D 0.000163204
4 *534:B1 *592:D 5.2089e-05
*RES
1 *621:X *592:D 9.94875 
*END

*D_NET *142 0.00130001
*CONN
*I *622:A I *D sky130_fd_sc_hd__dlygate4sd3_1
*I *648:A I *D sky130_fd_sc_hd__buf_2
*I *586:Q O *D sky130_fd_sc_hd__dfxtp_1
*CAP
1 *622:A 7.95301e-05
2 *648:A 0.000149931
3 *586:Q 0.000157842
4 *142:10 0.000387303
5 *622:A *521:A 7.35813e-05
6 adc_out[1] *648:A 0
7 *521:B *622:A 9.70988e-05
8 *522:B1 *622:A 0.000354725
*RES
1 *586:Q *142:10 5.52 
2 *142:10 *648:A 6 
3 *142:10 *622:A 7.17 
*END

*D_NET *143 0.000207054
*CONN
*I *521:A I *D sky130_fd_sc_hd__or2_1
*I *622:X O *D sky130_fd_sc_hd__dlygate4sd3_1
*CAP
1 *521:A 4.17552e-05
2 *622:X 4.17552e-05
3 *521:B *521:A 4.99619e-05
4 *622:A *521:A 7.35813e-05
*RES
1 *622:X *521:A 4.34 
*END

*D_NET *144 0.000220594
*CONN
*I *519:A I *D sky130_fd_sc_hd__or2_1
*I *623:X O *D sky130_fd_sc_hd__dlygate4sd3_1
*CAP
1 *519:A 3.33164e-05
2 *623:X 3.33164e-05
3 *520:B1 *519:A 2.86975e-05
4 *130:18 *519:A 0.000125264
*RES
1 *623:X *519:A 4.34 
*END

*D_NET *145 0.000503831
*CONN
*I *531:A I *D sky130_fd_sc_hd__or2_1
*I *624:X O *D sky130_fd_sc_hd__dlygate4sd3_1
*CAP
1 *531:A 0.000138091
2 *624:X 0.000138091
3 *531:A *650:A 2.66586e-05
4 *532:B1 *531:A 0.000124895
5 *533:B *531:A 0
6 *588:CLK *531:A 7.60965e-05
7 *136:40 *531:A 0
*RES
1 *624:X *531:A 10.155 
*END

*D_NET *146 0.00134052
*CONN
*I *542:A I *D sky130_fd_sc_hd__or2_1
*I *625:X O *D sky130_fd_sc_hd__dlygate4sd3_1
*CAP
1 *542:A 0.000470137
2 *625:X 0.000470137
3 *549:A_N *542:A 0.00011371
4 *583:A1 *542:A 0.000121437
5 *108:12 *542:A 0.000165101
*RES
1 *625:X *542:A 13.71 
*END

*D_NET *147 0.00020917
*CONN
*I *525:A I *D sky130_fd_sc_hd__or2_1
*I *626:X O *D sky130_fd_sc_hd__dlygate4sd3_1
*CAP
1 *525:A 4.43241e-05
2 *626:X 4.43241e-05
3 *525:A *651:A 7.22354e-05
4 *525:B *525:A 4.82863e-05
*RES
1 *626:X *525:A 4.34 
*END

*D_NET *148 0.00263281
*CONN
*I *528:A1 I *D sky130_fd_sc_hd__o211a_1
*I *616:X O *D sky130_fd_sc_hd__dlygate4sd3_1
*CAP
1 *528:A1 0.000870153
2 *616:X 0.000870153
3 *598:CLK *528:A1 9.73615e-05
4 *598:D *528:A1 0.000147723
5 *615:A *528:A1 0.000142434
6 *617:A *528:A1 0.000143782
7 *619:A *528:A1 4.66108e-05
8 *80:62 *528:A1 0.000281905
9 *80:75 *528:A1 3.26889e-05
*RES
1 *616:X *528:A1 17.405 
*END

*D_NET *149 0.000266403
*CONN
*I *589:D I *D sky130_fd_sc_hd__dfxtp_1
*I *617:X O *D sky130_fd_sc_hd__dlygate4sd3_1
*CAP
1 *589:D 3.43512e-05
2 *617:X 3.43512e-05
3 *574:B1 *589:D 4.82971e-05
4 *118:33 *589:D 0.000149404
*RES
1 *617:X *589:D 4.56875 
*END

*D_NET *150 0.00018121
*CONN
*I *523:A I *D sky130_fd_sc_hd__or2_1
*I *618:X O *D sky130_fd_sc_hd__dlygate4sd3_1
*CAP
1 *523:A 7.00811e-05
2 *618:X 7.00811e-05
3 *526:A1 *523:A 4.10476e-05
*RES
1 *618:X *523:A 4.34 
*END

*D_NET *151 0.0037967
*CONN
*I *618:A I *D sky130_fd_sc_hd__dlygate4sd3_1
*I *649:A I *D sky130_fd_sc_hd__buf_2
*I *587:Q O *D sky130_fd_sc_hd__dfxtp_1
*CAP
1 *618:A 0.000212172
2 *649:A 0.00142488
3 *587:Q 0
4 *151:4 0.00163705
5 *524:B1 *618:A 0
6 *536:A *618:A 2.0248e-05
7 *536:A *649:A 6.00852e-05
8 *588:D *649:A 2.69272e-05
9 *80:91 *649:A 0.000144662
10 *103:14 *618:A 0
11 *136:14 *649:A 0.000177198
12 *136:16 *649:A 4.88478e-05
13 *136:40 *649:A 4.46271e-05
*RES
1 *587:Q *151:4 1.6 
2 *151:4 *649:A 25.235 
3 *151:4 *618:A 8.465 
*END

*D_NET *152 0.00320818
*CONN
*I *626:A I *D sky130_fd_sc_hd__dlygate4sd3_1
*I *650:A I *D sky130_fd_sc_hd__buf_2
*I *588:Q O *D sky130_fd_sc_hd__dfxtp_1
*CAP
1 *626:A 8.6101e-05
2 *650:A 0.00103338
3 *588:Q 0.000160429
4 *152:6 0.00127991
5 *525:B *626:A 0
6 *531:A *650:A 2.66586e-05
7 *532:B1 *626:A 0.000116165
8 *532:B1 *650:A 2.88543e-05
9 *532:B1 *152:6 4.87485e-06
10 *588:CLK *650:A 0.000230925
11 *588:D *650:A 4.82319e-06
12 *136:40 *626:A 0.000227536
13 *136:51 *626:A 8.53113e-06
*RES
1 *588:Q *152:6 3.43 
2 *152:6 *650:A 13.96 
3 *152:6 *626:A 8.255 
*END

*D_NET *153 0.00397715
*CONN
*I *527:A I *D sky130_fd_sc_hd__or2_1
*I *651:A I *D sky130_fd_sc_hd__buf_2
*I *589:Q O *D sky130_fd_sc_hd__dfxtp_1
*CAP
1 *527:A 8.74031e-05
2 *651:A 0.000719662
3 *589:Q 5.2317e-05
4 *153:6 0.000859382
5 *527:A *154:10 0
6 *651:A *624:A 0.000311947
7 *525:A *651:A 7.22354e-05
8 *525:B *651:A 1.34594e-05
9 *527:B *527:A 0.00015829
10 *534:A1 *651:A 0.000200615
11 *534:A2 *651:A 3.59784e-05
12 *534:C1 *651:A 0.00028177
13 *574:B1 *651:A 0.00102089
14 *574:B1 *153:6 0.000163204
15 *118:33 *527:A 0
*RES
1 *589:Q *153:6 3.085 
2 *153:6 *651:A 18.535 
3 *153:6 *527:A 7.49 
*END

*D_NET *154 0.00405508
*CONN
*I *529:A I *D sky130_fd_sc_hd__or2_1
*I *652:A I *D sky130_fd_sc_hd__buf_2
*I *590:Q O *D sky130_fd_sc_hd__dfxtp_1
*CAP
1 *529:A 0.00038988
2 *652:A 0.000973515
3 *590:Q 0.000243258
4 *154:10 0.00160665
5 dac_in[6] *652:A 0.000124471
6 *527:A *154:10 0
7 *529:B *529:A 8.8266e-05
8 *637:A *652:A 8.52845e-05
9 *638:A *652:A 0.000234777
10 *645:A *154:10 5.92849e-05
11 *646:A *652:A 4.82863e-05
12 *80:75 *154:10 0
13 *118:33 *154:10 0.0002014
*RES
1 *590:Q *154:10 10.55 
2 *154:10 *652:A 16.9 
3 *154:10 *529:A 7.225 
*END

*D_NET *155 0.00263514
*CONN
*I *653:A I *D sky130_fd_sc_hd__buf_2
*I *624:A I *D sky130_fd_sc_hd__dlygate4sd3_1
*I *591:Q O *D sky130_fd_sc_hd__dfxtp_1
*CAP
1 *653:A 0.000497153
2 *624:A 0.000211798
3 *591:Q 0
4 *155:4 0.000708952
5 *506:A *653:A 4.82919e-05
6 *533:B *653:A 0.000242494
7 *534:C1 *624:A 0.000313617
8 *574:B1 *624:A 9.91888e-05
9 *591:CLK *624:A 3.68769e-05
10 *620:A *624:A 0
11 *621:A *653:A 0.000160635
12 *646:A *624:A 4.18603e-06
13 *651:A *624:A 0.000311947
14 *136:51 *624:A 0
15 *136:64 *624:A 0
*RES
1 *591:Q *155:4 1.6 
2 *155:4 *624:A 11.885 
3 *155:4 *653:A 10.87 
*END
