*SPEF "ieee 1481-1999"
*DESIGN "controller"
*DATE "17:02:50 Tuesday December 16, 2025"
*VENDOR "The OpenROAD Project"
*PROGRAM "OpenROAD"
*VERSION "edf00dff99f6c40d67a30c0e22a8191c5d2ed9d6"
*DESIGN_FLOW "NAME_SCOPE LOCAL" "PIN_CAP NONE"
*DIVIDER /
*DELIMITER :
*BUS_DELIMITER []
*T_UNIT 1 NS
*C_UNIT 1 PF
*R_UNIT 1 OHM
*L_UNIT 1 HENRY

*NAME_MAP
*3 adc_out[0]
*4 adc_out[1]
*5 adc_out[2]
*6 adc_out[3]
*7 adc_out[4]
*8 adc_out[5]
*9 adc_out[6]
*10 adc_out[7]
*11 clk
*12 comp
*13 comparator_clk
*14 dac_in[0]
*15 dac_in[1]
*16 dac_in[2]
*17 dac_in[3]
*18 dac_in[4]
*19 dac_in[5]
*20 dac_in[6]
*21 dac_in[7]
*22 dac_in_n[0]
*23 dac_in_n[1]
*24 dac_in_n[2]
*25 dac_in_n[3]
*26 dac_in_n[4]
*27 dac_in_n[5]
*28 dac_in_n[6]
*29 dac_in_n[7]
*30 rst_n
*31 _001_
*32 _002_
*33 _003_
*34 _004_
*35 _005_
*36 _006_
*37 _007_
*38 _008_
*39 _009_
*40 _010_
*41 _011_
*42 _012_
*43 _013_
*44 _014_
*45 _015_
*46 _016_
*47 _017_
*48 _018_
*49 _019_
*50 _020_
*51 _021_
*52 _022_
*53 _023_
*54 _024_
*55 _025_
*56 _026_
*57 _027_
*58 _028_
*59 _029_
*60 _030_
*61 _031_
*62 _032_
*63 _033_
*64 _034_
*65 _035_
*66 _036_
*67 _037_
*68 _038_
*69 _039_
*70 _040_
*71 _041_
*72 _042_
*73 _043_
*74 _044_
*75 _045_
*76 _046_
*77 _047_
*78 _048_
*79 _049_
*80 _050_
*81 _051_
*82 _052_
*83 _053_
*84 _054_
*85 _055_
*86 _056_
*87 _057_
*88 _058_
*89 _059_
*90 _060_
*91 _061_
*92 _062_
*93 _063_
*94 _064_
*95 _065_
*96 _066_
*97 _067_
*98 _068_
*99 _069_
*100 _070_
*101 _071_
*102 clknet_0_clk
*103 clknet_1_0__leaf_clk
*104 clknet_1_1__leaf_clk
*105 count\[0\]
*106 count\[1\]
*107 count\[2\]
*108 count\[3\]
*109 net1
*110 net10
*111 net11
*112 net12
*113 net13
*114 net14
*115 net15
*116 net16
*117 net17
*118 net18
*119 net19
*120 net2
*121 net20
*122 net21
*123 net22
*124 net23
*125 net24
*126 net25
*127 net26
*128 net27
*129 net28
*130 net29
*131 net3
*132 net30
*133 net31
*134 net32
*135 net33
*136 net34
*137 net35
*138 net36
*139 net37
*140 net38
*141 net39
*142 net4
*143 net40
*144 net41
*145 net42
*146 net43
*147 net5
*148 net6
*149 net7
*150 net8
*151 net9
*152 FILLER_0_109
*153 FILLER_0_113
*154 FILLER_0_125
*155 FILLER_0_137
*156 FILLER_0_141
*157 FILLER_0_15
*158 FILLER_0_153
*159 FILLER_0_165
*160 FILLER_0_169
*161 FILLER_0_181
*162 FILLER_0_187
*163 FILLER_0_193
*164 FILLER_0_197
*165 FILLER_0_209
*166 FILLER_0_221
*167 FILLER_0_225
*168 FILLER_0_237
*169 FILLER_0_249
*170 FILLER_0_253
*171 FILLER_0_265
*172 FILLER_0_27
*173 FILLER_0_273
*174 FILLER_0_281
*175 FILLER_0_29
*176 FILLER_0_3
*177 FILLER_0_41
*178 FILLER_0_53
*179 FILLER_0_57
*180 FILLER_0_69
*181 FILLER_0_81
*182 FILLER_0_85
*183 FILLER_0_97
*184 FILLER_1_110
*185 FILLER_1_113
*186 FILLER_1_125
*187 FILLER_1_147
*188 FILLER_1_15
*189 FILLER_1_159
*190 FILLER_1_167
*191 FILLER_1_201
*192 FILLER_1_207
*193 FILLER_1_230
*194 FILLER_1_252
*195 FILLER_1_264
*196 FILLER_1_27
*197 FILLER_1_276
*198 FILLER_1_281
*199 FILLER_1_3
*200 FILLER_1_39
*201 FILLER_1_51
*202 FILLER_1_55
*203 FILLER_1_73
*204 FILLER_1_92
*205 FILLER_2_119
*206 FILLER_2_133
*207 FILLER_2_15
*208 FILLER_2_155
*209 FILLER_2_167
*210 FILLER_2_175
*211 FILLER_2_189
*212 FILLER_2_195
*213 FILLER_2_197
*214 FILLER_2_203
*215 FILLER_2_223
*216 FILLER_2_244
*217 FILLER_2_261
*218 FILLER_2_27
*219 FILLER_2_273
*220 FILLER_2_285
*221 FILLER_2_29
*222 FILLER_2_3
*223 FILLER_2_41
*224 FILLER_2_53
*225 FILLER_2_61
*226 FILLER_2_75
*227 FILLER_2_82
*228 FILLER_2_90
*229 FILLER_2_94
*230 FILLER_3_102
*231 FILLER_3_111
*232 FILLER_3_113
*233 FILLER_3_125
*234 FILLER_3_132
*235 FILLER_3_15
*236 FILLER_3_151
*237 FILLER_3_162
*238 FILLER_3_169
*239 FILLER_3_181
*240 FILLER_3_193
*241 FILLER_3_201
*242 FILLER_3_233
*243 FILLER_3_237
*244 FILLER_3_243
*245 FILLER_3_255
*246 FILLER_3_267
*247 FILLER_3_27
*248 FILLER_3_279
*249 FILLER_3_281
*250 FILLER_3_3
*251 FILLER_3_39
*252 FILLER_3_51
*253 FILLER_3_55
*254 FILLER_3_57
*255 FILLER_3_63
*256 FILLER_3_74
*257 FILLER_3_86
*258 FILLER_3_98
*259 FILLER_4_103
*260 FILLER_4_124
*261 FILLER_4_136
*262 FILLER_4_145
*263 FILLER_4_15
*264 FILLER_4_155
*265 FILLER_4_164
*266 FILLER_4_172
*267 FILLER_4_178
*268 FILLER_4_190
*269 FILLER_4_197
*270 FILLER_4_209
*271 FILLER_4_221
*272 FILLER_4_233
*273 FILLER_4_261
*274 FILLER_4_27
*275 FILLER_4_273
*276 FILLER_4_285
*277 FILLER_4_29
*278 FILLER_4_3
*279 FILLER_4_41
*280 FILLER_4_53
*281 FILLER_4_65
*282 FILLER_4_77
*283 FILLER_4_83
*284 FILLER_4_91
*285 FILLER_5_108
*286 FILLER_5_113
*287 FILLER_5_117
*288 FILLER_5_143
*289 FILLER_5_147
*290 FILLER_5_169
*291 FILLER_5_175
*292 FILLER_5_18
*293 FILLER_5_221
*294 FILLER_5_225
*295 FILLER_5_239
*296 FILLER_5_251
*297 FILLER_5_263
*298 FILLER_5_275
*299 FILLER_5_279
*300 FILLER_5_281
*301 FILLER_5_30
*302 FILLER_5_38
*303 FILLER_5_57
*304 FILLER_5_6
*305 FILLER_5_66
*306 FILLER_5_72
*307 FILLER_5_80
*308 FILLER_5_99
*309 FILLER_6_106
*310 FILLER_6_116
*311 FILLER_6_128
*312 FILLER_6_15
*313 FILLER_6_152
*314 FILLER_6_160
*315 FILLER_6_168
*316 FILLER_6_180
*317 FILLER_6_192
*318 FILLER_6_219
*319 FILLER_6_231
*320 FILLER_6_244
*321 FILLER_6_253
*322 FILLER_6_265
*323 FILLER_6_27
*324 FILLER_6_277
*325 FILLER_6_285
*326 FILLER_6_29
*327 FILLER_6_3
*328 FILLER_6_41
*329 FILLER_6_53
*330 FILLER_6_65
*331 FILLER_6_73
*332 FILLER_7_100
*333 FILLER_7_110
*334 FILLER_7_113
*335 FILLER_7_121
*336 FILLER_7_134
*337 FILLER_7_15
*338 FILLER_7_154
*339 FILLER_7_158
*340 FILLER_7_169
*341 FILLER_7_183
*342 FILLER_7_195
*343 FILLER_7_207
*344 FILLER_7_222
*345 FILLER_7_225
*346 FILLER_7_263
*347 FILLER_7_27
*348 FILLER_7_275
*349 FILLER_7_279
*350 FILLER_7_281
*351 FILLER_7_3
*352 FILLER_7_39
*353 FILLER_7_57
*354 FILLER_7_69
*355 FILLER_7_77
*356 FILLER_8_115
*357 FILLER_8_123
*358 FILLER_8_145
*359 FILLER_8_15
*360 FILLER_8_153
*361 FILLER_8_157
*362 FILLER_8_165
*363 FILLER_8_191
*364 FILLER_8_195
*365 FILLER_8_227
*366 FILLER_8_231
*367 FILLER_8_235
*368 FILLER_8_253
*369 FILLER_8_264
*370 FILLER_8_27
*371 FILLER_8_276
*372 FILLER_8_29
*373 FILLER_8_3
*374 FILLER_8_41
*375 FILLER_8_69
*376 FILLER_8_81
*377 FILLER_8_85
*378 FILLER_8_97
*379 FILLER_9_10
*380 FILLER_9_102
*381 FILLER_9_110
*382 FILLER_9_113
*383 FILLER_9_121
*384 FILLER_9_133
*385 FILLER_9_141
*386 FILLER_9_153
*387 FILLER_9_159
*388 FILLER_9_167
*389 FILLER_9_169
*390 FILLER_9_173
*391 FILLER_9_178
*392 FILLER_9_190
*393 FILLER_9_201
*394 FILLER_9_209
*395 FILLER_9_216
*396 FILLER_9_225
*397 FILLER_9_248
*398 FILLER_9_26
*399 FILLER_9_265
*400 FILLER_9_273
*401 FILLER_9_281
*402 FILLER_9_29
*403 FILLER_9_45
*404 FILLER_9_53
*405 FILLER_9_57
*406 FILLER_9_64
*407 FILLER_9_76
*408 FILLER_9_83
*409 FILLER_9_85
*410 FILLER_9_97
*411 PHY_EDGE_ROW_0_Left_10
*412 PHY_EDGE_ROW_0_Right_0
*413 PHY_EDGE_ROW_1_Left_11
*414 PHY_EDGE_ROW_1_Right_1
*415 PHY_EDGE_ROW_2_Left_12
*416 PHY_EDGE_ROW_2_Right_2
*417 PHY_EDGE_ROW_3_Left_13
*418 PHY_EDGE_ROW_3_Right_3
*419 PHY_EDGE_ROW_4_Left_14
*420 PHY_EDGE_ROW_4_Right_4
*421 PHY_EDGE_ROW_5_Left_15
*422 PHY_EDGE_ROW_5_Right_5
*423 PHY_EDGE_ROW_6_Left_16
*424 PHY_EDGE_ROW_6_Right_6
*425 PHY_EDGE_ROW_7_Left_17
*426 PHY_EDGE_ROW_7_Right_7
*427 PHY_EDGE_ROW_8_Left_18
*428 PHY_EDGE_ROW_8_Right_8
*429 PHY_EDGE_ROW_9_Left_19
*430 PHY_EDGE_ROW_9_Right_9
*431 TAP_TAPCELL_ROW_0_20
*432 TAP_TAPCELL_ROW_0_21
*433 TAP_TAPCELL_ROW_0_22
*434 TAP_TAPCELL_ROW_0_23
*435 TAP_TAPCELL_ROW_0_24
*436 TAP_TAPCELL_ROW_0_25
*437 TAP_TAPCELL_ROW_0_26
*438 TAP_TAPCELL_ROW_0_27
*439 TAP_TAPCELL_ROW_0_28
*440 TAP_TAPCELL_ROW_0_29
*441 TAP_TAPCELL_ROW_1_30
*442 TAP_TAPCELL_ROW_1_31
*443 TAP_TAPCELL_ROW_1_32
*444 TAP_TAPCELL_ROW_1_33
*445 TAP_TAPCELL_ROW_1_34
*446 TAP_TAPCELL_ROW_2_35
*447 TAP_TAPCELL_ROW_2_36
*448 TAP_TAPCELL_ROW_2_37
*449 TAP_TAPCELL_ROW_2_38
*450 TAP_TAPCELL_ROW_2_39
*451 TAP_TAPCELL_ROW_3_40
*452 TAP_TAPCELL_ROW_3_41
*453 TAP_TAPCELL_ROW_3_42
*454 TAP_TAPCELL_ROW_3_43
*455 TAP_TAPCELL_ROW_3_44
*456 TAP_TAPCELL_ROW_4_45
*457 TAP_TAPCELL_ROW_4_46
*458 TAP_TAPCELL_ROW_4_47
*459 TAP_TAPCELL_ROW_4_48
*460 TAP_TAPCELL_ROW_4_49
*461 TAP_TAPCELL_ROW_5_50
*462 TAP_TAPCELL_ROW_5_51
*463 TAP_TAPCELL_ROW_5_52
*464 TAP_TAPCELL_ROW_5_53
*465 TAP_TAPCELL_ROW_5_54
*466 TAP_TAPCELL_ROW_6_55
*467 TAP_TAPCELL_ROW_6_56
*468 TAP_TAPCELL_ROW_6_57
*469 TAP_TAPCELL_ROW_6_58
*470 TAP_TAPCELL_ROW_6_59
*471 TAP_TAPCELL_ROW_7_60
*472 TAP_TAPCELL_ROW_7_61
*473 TAP_TAPCELL_ROW_7_62
*474 TAP_TAPCELL_ROW_7_63
*475 TAP_TAPCELL_ROW_7_64
*476 TAP_TAPCELL_ROW_8_65
*477 TAP_TAPCELL_ROW_8_66
*478 TAP_TAPCELL_ROW_8_67
*479 TAP_TAPCELL_ROW_8_68
*480 TAP_TAPCELL_ROW_8_69
*481 TAP_TAPCELL_ROW_9_70
*482 TAP_TAPCELL_ROW_9_71
*483 TAP_TAPCELL_ROW_9_72
*484 TAP_TAPCELL_ROW_9_73
*485 TAP_TAPCELL_ROW_9_74
*486 TAP_TAPCELL_ROW_9_75
*487 TAP_TAPCELL_ROW_9_76
*488 TAP_TAPCELL_ROW_9_77
*489 TAP_TAPCELL_ROW_9_78
*490 TAP_TAPCELL_ROW_9_79
*491 _072_
*492 _073_
*493 _074_
*494 _075_
*495 _076_
*496 _077_
*497 _078_
*498 _079_
*499 _080_
*500 _081_
*501 _082_
*502 _083__1
*503 _084_
*504 _085_
*505 _086_
*506 _087_
*507 _088_
*508 _089_
*509 _090_
*510 _091_
*511 _092_
*512 _093_
*513 _094_
*514 _095_
*515 _096_
*516 _097_
*517 _098_
*518 _099_
*519 _100_
*520 _101_
*521 _102_
*522 _103_
*523 _104_
*524 _105_
*525 _106_
*526 _107_
*527 _108_
*528 _109_
*529 _110_
*530 _111_
*531 _112_
*532 _113_
*533 _114_
*534 _115_
*535 _116_
*536 _117_
*537 _118_
*538 _119_
*539 _120_
*540 _121_
*541 _122_
*542 _123_
*543 _124_
*544 _125_
*545 _126_
*546 _127_
*547 _128_
*548 _129_
*549 _130_
*550 _131_
*551 _132_
*552 _133_
*553 _134_
*554 _135_
*555 _136_
*556 _137_
*557 _138_
*558 _139_
*559 _140_
*560 _141_
*561 _142_
*562 _143_
*563 _144_
*564 _145_
*565 _146_
*566 _147_
*567 _148_
*568 _149_
*569 _150_
*570 _151_
*571 _152_
*572 _153_
*573 _154_
*574 _155_
*575 _156_
*576 _157_
*577 _158_
*578 _159_
*579 _160_
*580 _161_
*581 _162_
*582 _163_
*583 _164_
*584 _165_
*585 _166_
*586 _167_
*587 _168_
*588 _169_
*589 _170_
*590 _171_
*591 _172_
*592 clkbuf_0_clk
*593 clkbuf_1_0__f_clk
*594 clkbuf_1_1__f_clk
*595 clkload0
*596 fanout28
*597 fanout30
*598 fanout31
*599 fanout32
*600 fanout33
*601 fanout34
*602 hold1
*603 hold2
*604 hold3
*605 hold4
*606 hold5
*607 hold6
*608 hold7
*609 hold8
*610 input1
*611 input2
*612 max_cap29
*613 output10
*614 output11
*615 output12
*616 output13
*617 output14
*618 output15
*619 output16
*620 output17
*621 output18
*622 output19
*623 output20
*624 output21
*625 output22
*626 output23
*627 output24
*628 output25
*629 output26
*630 output27
*631 output3
*632 output4
*633 output5
*634 output6
*635 output7
*636 output8
*637 output9

*PORTS
adc_out[0] O
adc_out[1] O
adc_out[2] O
adc_out[3] O
adc_out[4] O
adc_out[5] O
adc_out[6] O
adc_out[7] O
clk I
comp I
comparator_clk O
dac_in[0] O
dac_in[1] O
dac_in[2] O
dac_in[3] O
dac_in[4] O
dac_in[5] O
dac_in[6] O
dac_in[7] O
dac_in_n[0] O
dac_in_n[1] O
dac_in_n[2] O
dac_in_n[3] O
dac_in_n[4] O
dac_in_n[5] O
dac_in_n[6] O
dac_in_n[7] O
rst_n I

*D_NET *3 0.00171016
*CONN
*P adc_out[0] O
*I *631:X O *D sky130_fd_sc_hd__buf_2
*CAP
1 adc_out[0] 0.000333942
2 *631:X 0.000521139
3 *3:10 0.000855081
4 adc_out[0] adc_out[1] 0
*RES
1 *631:X *3:10 47.4354 
2 *3:10 adc_out[0] 9.23573 
*END

*D_NET *4 0.00139393
*CONN
*P adc_out[1] O
*I *632:X O *D sky130_fd_sc_hd__buf_2
*CAP
1 adc_out[1] 0.000696964
2 *632:X 0.000696964
3 adc_out[1] adc_out[2] 0
4 adc_out[0] adc_out[1] 0
*RES
1 *632:X adc_out[1] 49.9995 
*END

*D_NET *5 0.000652171
*CONN
*P adc_out[2] O
*I *633:X O *D sky130_fd_sc_hd__buf_2
*CAP
1 adc_out[2] 0.000319714
2 *633:X 0.000319714
3 *5:21 0
4 adc_out[2] adc_out[3] 0
5 adc_out[2] *131:27 1.27424e-05
6 adc_out[1] adc_out[2] 0
*RES
1 *633:X adc_out[2] 47.4504 
2 adc_out[2] *5:21 0.057931 
*END

*D_NET *6 0.00066942
*CONN
*P adc_out[3] O
*I *634:X O *D sky130_fd_sc_hd__buf_2
*CAP
1 adc_out[3] 0.00033471
2 *634:X 0.00033471
3 adc_out[3] adc_out[4] 0
4 adc_out[2] adc_out[3] 0
*RES
1 *634:X adc_out[3] 47.4504 
*END

*D_NET *7 0.000663012
*CONN
*P adc_out[4] O
*I *635:X O *D sky130_fd_sc_hd__buf_2
*CAP
1 adc_out[4] 0.000331506
2 *635:X 0.000331506
3 adc_out[4] adc_out[5] 0
4 adc_out[3] adc_out[4] 0
*RES
1 *635:X adc_out[4] 47.4504 
*END

*D_NET *8 0.000664223
*CONN
*P adc_out[5] O
*I *636:X O *D sky130_fd_sc_hd__buf_2
*CAP
1 adc_out[5] 0.000332112
2 *636:X 0.000332112
3 adc_out[5] adc_out[6] 0
4 adc_out[5] *111:44 0
5 adc_out[4] adc_out[5] 0
*RES
1 *636:X adc_out[5] 47.4504 
*END

*D_NET *9 0.0010431
*CONN
*P adc_out[6] O
*I *637:X O *D sky130_fd_sc_hd__buf_2
*CAP
1 adc_out[6] 0.000431831
2 *637:X 0.000431831
3 adc_out[6] adc_out[7] 0.000147098
4 adc_out[6] *111:44 0
5 adc_out[6] *128:37 3.23422e-05
6 adc_out[5] adc_out[6] 0
*RES
1 *637:X adc_out[6] 48.4982 
*END

*D_NET *10 0.00170061
*CONN
*P adc_out[7] O
*I *613:X O *D sky130_fd_sc_hd__buf_2
*CAP
1 adc_out[7] 0.000390883
2 *613:X 0.000298422
3 *10:10 0.000689305
4 adc_out[7] comparator_clk 0
5 *10:10 *29:8 7.46212e-05
6 *10:10 *128:37 0.000100284
7 adc_out[6] adc_out[7] 0.000147098
*RES
1 *613:X *10:10 44.2246 
2 *10:10 adc_out[7] 9.75093 
*END

*D_NET *11 0.0100112
*CONN
*P clk I
*I *592:A I *D sky130_fd_sc_hd__clkbuf_16
*CAP
1 clk 0.0042976
2 *592:A 0
3 *11:9 0.0042976
4 *11:9 *525:C 0.000481618
5 *11:9 *532:A_N 0.000182187
6 *11:9 *601:A 4.73884e-05
7 *11:9 *62:14 0.000139647
8 *11:9 *105:10 0.000352526
9 *11:9 *135:8 0.000100778
10 *11:9 *135:20 0.000111852
*RES
1 clk *11:9 39.8324 
2 *11:9 *592:A 38 
*END

*D_NET *12 0.000804464
*CONN
*P comp I
*I *610:A I *D sky130_fd_sc_hd__buf_1
*CAP
1 comp 0.000402232
2 *610:A 0
3 *12:13 0.000402232
*RES
1 comp *12:13 28.3578 
2 *12:13 *610:A 23 
*END

*D_NET *13 0.00202487
*CONN
*P comparator_clk O
*I *614:X O *D sky130_fd_sc_hd__buf_2
*CAP
1 comparator_clk 0.0006971
2 *614:X 0.000315333
3 *13:8 0.00101243
4 *13:8 *28:8 0
5 *13:8 *29:8 0
6 adc_out[7] comparator_clk 0
*RES
1 *614:X *13:8 44.6596 
2 *13:8 comparator_clk 10.5237 
*END

*D_NET *14 0.00144001
*CONN
*P dac_in[0] O
*I *615:X O *D sky130_fd_sc_hd__buf_2
*CAP
1 dac_in[0] 0.000502263
2 *615:X 9.21863e-05
3 *14:8 0.00059445
4 dac_in[0] *30:15 0.000107451
5 dac_in[0] *120:8 0
6 *14:8 *30:15 0.000143655
*RES
1 *615:X *14:8 39.5743 
2 *14:8 dac_in[0] 12.1386 
*END

*D_NET *15 0.00116577
*CONN
*P dac_in[1] O
*I *616:X O *D sky130_fd_sc_hd__buf_2
*CAP
1 dac_in[1] 4.49146e-05
2 *616:X 0.000537971
3 *15:8 0.000582885
*RES
1 *616:X *15:8 49.5896 
2 *15:8 dac_in[1] 1.02536 
*END

*D_NET *16 0.00147753
*CONN
*P dac_in[2] O
*I *617:X O *D sky130_fd_sc_hd__buf_2
*CAP
1 dac_in[2] 0.000569152
2 *617:X 9.65168e-05
3 *16:8 0.000665669
4 *16:8 *113:25 0.000146197
*RES
1 *617:X *16:8 39.5743 
2 *16:8 dac_in[2] 12.1386 
*END

*D_NET *17 0.00116577
*CONN
*P dac_in[3] O
*I *618:X O *D sky130_fd_sc_hd__buf_2
*CAP
1 dac_in[3] 4.49146e-05
2 *618:X 0.000537971
3 *17:8 0.000582885
*RES
1 *618:X *17:8 49.5896 
2 *17:8 dac_in[3] 1.02536 
*END

*D_NET *18 0.00116577
*CONN
*P dac_in[4] O
*I *619:X O *D sky130_fd_sc_hd__buf_2
*CAP
1 dac_in[4] 4.49146e-05
2 *619:X 0.000537971
3 *18:8 0.000582885
*RES
1 *619:X *18:8 49.5896 
2 *18:8 dac_in[4] 1.02536 
*END

*D_NET *19 0.00116577
*CONN
*P dac_in[5] O
*I *620:X O *D sky130_fd_sc_hd__buf_2
*CAP
1 dac_in[5] 4.49146e-05
2 *620:X 0.000537971
3 *19:8 0.000582885
*RES
1 *620:X *19:8 49.5896 
2 *19:8 dac_in[5] 1.02536 
*END

*D_NET *20 0.00116577
*CONN
*P dac_in[6] O
*I *621:X O *D sky130_fd_sc_hd__buf_2
*CAP
1 dac_in[6] 4.49146e-05
2 *621:X 0.000537971
3 *20:8 0.000582885
*RES
1 *621:X *20:8 49.5896 
2 *20:8 dac_in[6] 1.02536 
*END

*D_NET *21 0.00144554
*CONN
*P dac_in[7] O
*I *622:X O *D sky130_fd_sc_hd__buf_2
*CAP
1 dac_in[7] 0.000642896
2 *622:X 0
3 *21:6 0.000642896
4 dac_in[7] *116:29 0.000112906
5 dac_in[7] *119:10 4.68476e-05
6 dac_in[7] *120:20 0
*RES
1 *622:X *21:6 38 
2 *21:6 dac_in[7] 14.3757 
*END

*D_NET *22 0.00120745
*CONN
*P dac_in_n[0] O
*I *623:X O *D sky130_fd_sc_hd__buf_2
*CAP
1 dac_in_n[0] 6.5784e-05
2 *623:X 0.000537941
3 *22:8 0.000603725
*RES
1 *623:X *22:8 49.5896 
2 *22:8 dac_in_n[0] 1.50179 
*END

*D_NET *23 0.00120745
*CONN
*P dac_in_n[1] O
*I *624:X O *D sky130_fd_sc_hd__buf_2
*CAP
1 dac_in_n[1] 6.5784e-05
2 *624:X 0.000537941
3 *23:8 0.000603725
*RES
1 *624:X *23:8 49.5896 
2 *23:8 dac_in_n[1] 1.50179 
*END

*D_NET *24 0.00158738
*CONN
*P dac_in_n[2] O
*I *625:X O *D sky130_fd_sc_hd__buf_2
*CAP
1 dac_in_n[2] 0.000610861
2 *625:X 0.000145331
3 *24:8 0.000756192
4 *24:8 *626:A 2.93845e-05
5 *24:8 *118:36 4.56101e-05
*RES
1 *625:X *24:8 40.0507 
2 *24:8 dac_in_n[2] 13.0914 
*END

*D_NET *25 0.00132095
*CONN
*P dac_in_n[3] O
*I *626:X O *D sky130_fd_sc_hd__buf_2
*CAP
1 dac_in_n[3] 0.000569123
2 *626:X 6.99308e-05
3 *25:8 0.000639053
4 *25:8 *626:A 7.53384e-06
5 *25:8 *118:36 3.53115e-05
*RES
1 *626:X *25:8 39.0979 
2 *25:8 dac_in_n[3] 12.1386 
*END

*D_NET *26 0.00119443
*CONN
*P dac_in_n[4] O
*I *627:X O *D sky130_fd_sc_hd__buf_2
*CAP
1 dac_in_n[4] 6.5784e-05
2 *627:X 0.000531429
3 *26:8 0.000597213
4 *26:8 *116:21 0
*RES
1 *627:X *26:8 49.5896 
2 *26:8 dac_in_n[4] 1.50179 
*END

*D_NET *27 0.00206833
*CONN
*P dac_in_n[5] O
*I *628:X O *D sky130_fd_sc_hd__buf_2
*CAP
1 dac_in_n[5] 0.000621651
2 *628:X 0.000321664
3 *27:8 0.000943315
4 *27:8 *518:A 7.53384e-06
5 *27:8 *606:A 3.53115e-05
6 *27:8 *118:53 8.47188e-05
7 *27:8 *126:47 5.41385e-05
*RES
1 *628:X *27:8 42.9093 
2 *27:8 dac_in_n[5] 13.5679 
*END

*D_NET *28 0.00118729
*CONN
*P dac_in_n[6] O
*I *629:X O *D sky130_fd_sc_hd__buf_2
*CAP
1 dac_in_n[6] 6.5784e-05
2 *629:X 0.000527861
3 *28:8 0.000593645
4 *13:8 *28:8 0
*RES
1 *629:X *28:8 49.5896 
2 *28:8 dac_in_n[6] 1.50179 
*END

*D_NET *29 0.0011663
*CONN
*P dac_in_n[7] O
*I *630:X O *D sky130_fd_sc_hd__buf_2
*CAP
1 dac_in_n[7] 2.40452e-05
2 *630:X 0.000521795
3 *29:8 0.000545841
4 *10:10 *29:8 7.46212e-05
5 *13:8 *29:8 0
*RES
1 *630:X *29:8 49.5896 
2 *29:8 dac_in_n[7] 0.548929 
*END

*D_NET *30 0.00142087
*CONN
*P rst_n I
*I *611:A I *D sky130_fd_sc_hd__buf_1
*CAP
1 rst_n 0.00056303
2 *611:A 0
3 *30:15 0.00056303
4 *30:15 *615:A 4.37033e-05
5 dac_in[0] *30:15 0.000107451
6 *14:8 *30:15 0.000143655
*RES
1 rst_n *30:15 32.7966 
2 *30:15 *611:A 23 
*END

*D_NET *31 0.000405841
*CONN
*I *571:D I *D sky130_fd_sc_hd__dfxtp_1
*I *503:X O *D sky130_fd_sc_hd__and2b_1
*CAP
1 *571:D 0.000118829
2 *503:X 0.000118829
3 *571:D *503:A_N 0.000168183
*RES
1 *503:X *571:D 48.3873 
*END

*D_NET *32 0.000685459
*CONN
*I *572:D I *D sky130_fd_sc_hd__dfxtp_1
*I *507:X O *D sky130_fd_sc_hd__o211a_1
*CAP
1 *572:D 8.45249e-06
2 *507:X 0.000241218
3 *32:8 0.00024967
4 *572:D *104:56 1.64354e-05
5 *32:8 *508:B 0
6 *32:8 *35:8 0.000169683
7 *32:8 *80:81 0
8 *32:8 *81:10 0
9 *32:8 *104:36 0
*RES
1 *507:X *32:8 42.7229 
2 *32:8 *572:D 38.1916 
*END

*D_NET *33 0.000278161
*CONN
*I *573:D I *D sky130_fd_sc_hd__dfxtp_1
*I *509:X O *D sky130_fd_sc_hd__o211a_1
*CAP
1 *573:D 8.45249e-06
2 *509:X 0.000109703
3 *33:8 0.000118155
4 *573:D *104:12 1.64354e-05
5 *33:8 *82:10 0
6 *33:8 *104:10 0
7 *33:8 *113:10 2.5415e-05
*RES
1 *509:X *33:8 39.9057 
2 *33:8 *573:D 38.1916 
*END

*D_NET *34 0.000395041
*CONN
*I *574:D I *D sky130_fd_sc_hd__dfxtp_1
*I *511:X O *D sky130_fd_sc_hd__o211a_1
*CAP
1 *574:D 1.0032e-05
2 *511:X 0.000132247
3 *34:10 0.000142279
4 *574:D *131:27 7.10068e-06
5 *34:10 *104:60 4.83778e-05
6 *34:10 *130:21 5.50049e-05
*RES
1 *511:X *34:10 40.5271 
2 *34:10 *574:D 38.1916 
*END

*D_NET *35 0.00038484
*CONN
*I *575:D I *D sky130_fd_sc_hd__dfxtp_1
*I *513:X O *D sky130_fd_sc_hd__o211a_1
*CAP
1 *575:D 8.77079e-06
2 *513:X 8.79573e-05
3 *35:8 9.67281e-05
4 *575:D *130:8 1.74843e-05
5 *35:8 *79:14 0
6 *35:8 *80:39 0
7 *35:8 *104:36 4.21594e-06
8 *32:8 *35:8 0.000169683
*RES
1 *513:X *35:8 40.2579 
2 *35:8 *575:D 38.1916 
*END

*D_NET *36 0.000403014
*CONN
*I *576:D I *D sky130_fd_sc_hd__dfxtp_1
*I *515:X O *D sky130_fd_sc_hd__o211a_1
*CAP
1 *576:D 1.31802e-05
2 *515:X 0.000154887
3 *36:10 0.000168068
4 *36:10 *80:107 4.04598e-06
5 *36:10 *104:60 4.21594e-06
6 *36:10 *104:69 5.86165e-05
7 *36:10 *130:36 0
*RES
1 *515:X *36:10 40.8793 
2 *36:10 *576:D 38.1916 
*END

*D_NET *37 0.000326691
*CONN
*I *577:D I *D sky130_fd_sc_hd__dfxtp_1
*I *517:X O *D sky130_fd_sc_hd__o211a_1
*CAP
1 *577:D 5.85291e-05
2 *517:X 5.85291e-05
3 *577:D *577:CLK 2.93845e-05
4 *577:D *128:31 0.000170785
5 *577:D *144:10 9.4636e-06
*RES
1 *517:X *577:D 47.8902 
*END

*D_NET *38 0.000596274
*CONN
*I *578:D I *D sky130_fd_sc_hd__dfxtp_1
*I *519:X O *D sky130_fd_sc_hd__o211a_1
*CAP
1 *578:D 5.46002e-05
2 *519:X 8.47413e-05
3 *38:8 0.000139341
4 *578:D *110:37 0.000147908
5 *38:8 *518:B 0.000169683
6 *38:8 *519:A2 0
*RES
1 *519:X *38:8 40.2579 
2 *38:8 *578:D 39.6209 
*END

*D_NET *39 0.000507947
*CONN
*I *604:A I *D sky130_fd_sc_hd__dlygate4sd3_1
*I *521:X O *D sky130_fd_sc_hd__o211a_1
*CAP
1 *604:A 0
2 *521:X 0.000194793
3 *39:10 0.000194793
4 *39:10 *579:CLK 5.50106e-05
5 *39:10 *117:39 6.33511e-05
*RES
1 *521:X *39:10 41.0036 
2 *39:10 *604:A 38 
*END

*D_NET *40 0.000604602
*CONN
*I *580:D I *D sky130_fd_sc_hd__dfxtp_1
*I *534:X O *D sky130_fd_sc_hd__o21a_1
*CAP
1 *580:D 8.00616e-05
2 *534:X 8.00616e-05
3 *580:D *109:12 0.000100703
4 *580:D *112:25 0.000343776
*RES
1 *534:X *580:D 49.7959 
*END

*D_NET *41 0.00155472
*CONN
*I *581:D I *D sky130_fd_sc_hd__dfxtp_1
*I *539:Y O *D sky130_fd_sc_hd__a31oi_1
*CAP
1 *581:D 3.47594e-05
2 *539:Y 0.000639641
3 *41:10 0.000674401
4 *581:D *581:CLK 8.90341e-05
5 *41:10 *79:10 0.000116886
6 *41:10 *90:10 0
*RES
1 *539:Y *41:10 47.1557 
2 *41:10 *581:D 38.9943 
*END

*D_NET *42 0.00179886
*CONN
*I *582:D I *D sky130_fd_sc_hd__dfxtp_1
*I *544:X O *D sky130_fd_sc_hd__o31a_1
*CAP
1 *582:D 0.000411823
2 *544:X 0.0002617
3 *42:8 0.000673523
4 *582:D *114:33 0.000363299
5 *42:8 *57:8 0
6 *42:8 *58:8 8.85189e-05
*RES
1 *544:X *42:8 43.075 
2 *42:8 *582:D 48.0464 
*END

*D_NET *43 0.00665237
*CONN
*I *583:D I *D sky130_fd_sc_hd__dfxtp_1
*I *548:X O *D sky130_fd_sc_hd__o21a_1
*CAP
1 *583:D 0.000502607
2 *548:X 8.90578e-05
3 *43:22 0.001768
4 *43:8 0.00135446
5 *583:D *583:CLK 0.000129006
6 *583:D *115:10 0.000170779
7 *583:D *115:20 0.0010984
8 *43:8 *60:42 6.6869e-05
9 *43:8 *71:14 0
10 *43:8 *89:83 3.70094e-05
11 *43:22 *586:CLK 0.000709855
12 *43:22 *586:D 5.92579e-05
13 *43:22 *587:CLK 2.32101e-05
14 *43:22 *587:D 1.64354e-05
15 *43:22 *56:40 0.000355029
16 *43:22 *115:20 0.000257538
17 *43:22 *117:14 1.48553e-05
*RES
1 *548:X *43:8 39.9057 
2 *43:8 *43:22 36.9364 
3 *43:22 *583:D 36.8009 
*END

*D_NET *44 0.00220682
*CONN
*I *584:D I *D sky130_fd_sc_hd__dfxtp_1
*I *552:Y O *D sky130_fd_sc_hd__a31oi_1
*CAP
1 *584:D 0
2 *552:Y 0.000917155
3 *44:10 0.000917155
4 *44:10 *594:A 0.000268873
5 *44:10 *104:96 0.000103637
*RES
1 *552:Y *44:10 37.443 
2 *44:10 *584:D 23 
*END

*D_NET *45 0.00125008
*CONN
*I *585:D I *D sky130_fd_sc_hd__dfxtp_1
*I *556:Y O *D sky130_fd_sc_hd__a31oi_1
*CAP
1 *585:D 0.000135183
2 *556:Y 6.8251e-05
3 *45:8 0.000203434
4 *585:D *561:B1 0.00026808
5 *585:D *104:112 0.000129006
6 *585:D *117:14 8.72052e-05
7 *585:D *119:23 2.18506e-05
8 *585:D *119:44 5.50049e-05
9 *585:D *139:16 0.00017248
10 *45:8 *99:30 1.14452e-05
11 *45:8 *119:44 4.60263e-05
12 *45:8 *122:12 5.21127e-05
*RES
1 *556:Y *45:8 39.5536 
2 *45:8 *585:D 43.7016 
*END

*D_NET *46 0.000364398
*CONN
*I *586:D I *D sky130_fd_sc_hd__dfxtp_1
*I *560:X O *D sky130_fd_sc_hd__o31a_1
*CAP
1 *586:D 1.55139e-05
2 *560:X 9.13662e-05
3 *46:8 0.00010688
4 *586:D *586:CLK 5.92579e-05
5 *46:8 *115:36 3.21223e-05
6 *43:22 *586:D 5.92579e-05
*RES
1 *560:X *46:8 39.5536 
2 *46:8 *586:D 38.668 
*END

*D_NET *47 0.000325537
*CONN
*I *587:D I *D sky130_fd_sc_hd__dfxtp_1
*I *562:X O *D sky130_fd_sc_hd__a211o_1
*CAP
1 *587:D 9.69592e-06
2 *562:X 8.77764e-05
3 *47:8 9.74723e-05
4 *587:D *117:14 3.24476e-06
5 *47:8 *56:40 0.000110913
6 *43:22 *587:D 1.64354e-05
*RES
1 *562:X *47:8 39.5536 
2 *47:8 *587:D 38.1916 
*END

*D_NET *48 0.000411643
*CONN
*I *588:D I *D sky130_fd_sc_hd__dfxtp_1
*I *564:X O *D sky130_fd_sc_hd__and3_1
*CAP
1 *588:D 3.17763e-05
2 *564:X 7.55506e-05
3 *48:8 0.000107327
4 *588:D *129:22 8.38361e-05
5 *48:8 *103:88 0.000113153
*RES
1 *564:X *48:8 39.5536 
2 *48:8 *588:D 38.9373 
*END

*D_NET *49 0.000537654
*CONN
*I *589:D I *D sky130_fd_sc_hd__dfxtp_1
*I *566:X O *D sky130_fd_sc_hd__and3_1
*CAP
1 *589:D 9.57194e-05
2 *566:X 9.57194e-05
3 *589:D *567:B 3.13395e-05
4 *589:D *89:22 0.000178691
5 *589:D *93:14 1.14762e-05
6 *589:D *103:18 0.000124708
*RES
1 *566:X *589:D 49.0916 
*END

*D_NET *50 0.00062375
*CONN
*I *590:D I *D sky130_fd_sc_hd__dfxtp_2
*I *568:X O *D sky130_fd_sc_hd__and3_1
*CAP
1 *590:D 1.93686e-05
2 *568:X 0.000166826
3 *50:10 0.000186195
4 *590:D *103:26 8.90341e-05
5 *590:D *108:14 3.68467e-05
6 *50:10 *597:A 4.08641e-05
7 *50:10 *89:42 5.50106e-05
8 *50:10 *108:14 2.96051e-05
9 *50:10 *129:36 0
*RES
1 *568:X *50:10 40.5271 
2 *50:10 *590:D 38.9943 
*END

*D_NET *51 0.00173076
*CONN
*I *591:D I *D sky130_fd_sc_hd__dfxtp_1
*I *570:Y O *D sky130_fd_sc_hd__a21oi_1
*CAP
1 *591:D 0.000200911
2 *570:Y 0.000230629
3 *51:8 0.00043154
4 *591:D *103:28 0.000580952
5 *51:8 *597:A 0.000101708
6 *51:8 *89:42 8.47448e-05
7 *51:8 *95:36 0
8 *51:8 *96:10 4.08641e-05
9 *51:8 *108:14 5.94125e-05
*RES
1 *570:Y *51:8 42.7229 
2 *51:8 *591:D 44.3852 
*END

*D_NET *52 0.00164614
*CONN
*I *559:B1 I *D sky130_fd_sc_hd__o211a_1
*I *543:C I *D sky130_fd_sc_hd__and4bb_1
*I *536:X O *D sky130_fd_sc_hd__and4bb_1
*CAP
1 *559:B1 0.000239191
2 *543:C 0.00020807
3 *536:X 0
4 *52:4 0.000447261
5 *543:C *543:B_N 0.000139357
6 *543:C *107:31 4.93223e-05
7 *559:B1 *536:A_N 9.62666e-05
8 *559:B1 *543:B_N 0.000384359
9 *559:B1 *559:A2 8.23099e-05
*RES
1 *536:X *52:4 23 
2 *52:4 *543:C 26.9564 
3 *52:4 *559:B1 29.3593 
*END

*D_NET *53 0.00177734
*CONN
*I *539:A2 I *D sky130_fd_sc_hd__a31oi_1
*I *537:X O *D sky130_fd_sc_hd__or4_1
*CAP
1 *539:A2 0
2 *537:X 0.000608333
3 *53:12 0.000608333
4 *53:12 *504:B 1.32939e-05
5 *53:12 *504:D_N 9.84851e-05
6 *53:12 *539:A3 3.22879e-05
7 *53:12 *79:8 0.000305431
8 *53:12 *79:10 6.52495e-05
9 *53:12 *105:14 3.60444e-05
10 *53:12 *107:81 9.88574e-06
*RES
1 *537:X *53:12 33.6886 
2 *53:12 *539:A2 23 
*END

*D_NET *54 0.000449137
*CONN
*I *539:A3 I *D sky130_fd_sc_hd__a31oi_1
*I *538:Y O *D sky130_fd_sc_hd__nand3_1
*CAP
1 *539:A3 1.66413e-05
2 *538:Y 9.75519e-05
3 *54:8 0.000114193
4 *539:A3 *79:10 5.3304e-05
5 *54:8 *112:39 0.000135159
6 *54:8 *134:27 0
7 *53:12 *539:A3 3.22879e-05
*RES
1 *538:Y *54:8 39.9057 
2 *54:8 *539:A3 38.6214 
*END

*D_NET *55 0.00146721
*CONN
*I *544:A1 I *D sky130_fd_sc_hd__o31a_1
*I *540:X O *D sky130_fd_sc_hd__o41a_1
*CAP
1 *544:A1 7.82742e-06
2 *540:X 0.000497929
3 *55:14 0.000505756
4 *55:14 *533:A2 9.84794e-05
5 *55:14 *533:B1 0.000141954
6 *55:14 *533:C1 7.42621e-05
7 *55:14 *544:A2 1.79538e-05
8 *55:14 *544:A3 4.06849e-05
9 *55:14 *544:B1 3.61366e-06
10 *55:14 *57:8 0
11 *55:14 *58:8 6.54012e-05
12 *55:14 *109:12 1.33461e-05
*RES
1 *540:X *55:14 46.7621 
2 *55:14 *544:A1 38.1657 
*END

*D_NET *56 0.00727566
*CONN
*I *561:A1 I *D sky130_fd_sc_hd__a21oi_1
*I *545:A2 I *D sky130_fd_sc_hd__a21oi_1
*I *547:A3 I *D sky130_fd_sc_hd__a32o_1
*I *558:A I *D sky130_fd_sc_hd__and2_1
*I *542:B I *D sky130_fd_sc_hd__and2_1
*I *541:Y O *D sky130_fd_sc_hd__nor3b_2
*CAP
1 *561:A1 0
2 *545:A2 0
3 *547:A3 3.71443e-05
4 *558:A 0
5 *542:B 0.000160149
6 *541:Y 0
7 *56:67 0.000391526
8 *56:44 0.000548452
9 *56:40 0.00056258
10 *56:25 0.00120838
11 *56:4 0.000925734
12 *542:B *542:A 0.000102093
13 *542:B *114:33 3.53115e-05
14 *547:A3 *547:A2 5.50106e-05
15 *547:A3 *59:8 5.25848e-05
16 *547:A3 *78:53 2.02872e-05
17 *56:25 *531:A_N 7.44257e-05
18 *56:25 *541:A 0.000143655
19 *56:25 *541:B 9.84794e-05
20 *56:25 *542:A 4.6595e-05
21 *56:25 *557:B1 8.4047e-05
22 *56:25 *560:A1 9.84794e-05
23 *56:25 *560:A2 0.000155028
24 *56:25 *560:A3 1.41077e-05
25 *56:25 *560:B1 0.000228903
26 *56:25 *562:A2 0.000156457
27 *56:25 *78:40 0.000312348
28 *56:25 *114:33 2.07791e-05
29 *56:25 *133:91 2.88036e-05
30 *56:40 *562:A2 0.000356724
31 *56:40 *60:42 0.00014196
32 *56:40 *60:49 4.17736e-05
33 *56:40 *71:14 0.000207134
34 *56:40 *78:40 0.000193575
35 *56:40 *103:106 0
36 *56:40 *117:14 4.79612e-05
37 *56:44 *547:A2 3.39192e-05
38 *56:44 *60:42 0
39 *56:44 *120:20 3.7124e-05
40 *56:67 *545:A1 3.61511e-05
41 *56:67 *547:B2 1.05441e-05
42 *56:67 *66:12 4.89323e-05
43 *56:67 *92:22 7.47278e-05
44 *56:67 *94:31 1.78309e-05
45 *56:67 *120:20 0
46 *43:22 *56:40 0.000355029
47 *47:8 *56:40 0.000110913
*RES
1 *541:Y *56:4 23 
2 *56:4 *542:B 26.5007 
3 *56:4 *56:25 47.7107 
4 *56:25 *558:A 23 
5 *56:25 *56:40 43.3814 
6 *56:40 *56:44 17.2579 
7 *56:44 *547:A3 39.0979 
8 *56:44 *56:67 33.0272 
9 *56:67 *545:A2 23 
10 *56:40 *561:A1 23 
*END

*D_NET *57 0.00106699
*CONN
*I *544:A2 I *D sky130_fd_sc_hd__o31a_1
*I *542:X O *D sky130_fd_sc_hd__and2_1
*CAP
1 *544:A2 3.89072e-05
2 *542:X 0.00024251
3 *57:8 0.000281418
4 *544:A2 *544:A3 5.67058e-05
5 *544:A2 *109:12 0.000143655
6 *57:8 *541:C_N 0
7 *57:8 *543:A_N 3.64189e-05
8 *57:8 *544:B1 6.10775e-05
9 *57:8 *58:8 0
10 *57:8 *107:31 0.000188341
11 *42:8 *57:8 0
12 *55:14 *544:A2 1.79538e-05
13 *55:14 *57:8 0
*RES
1 *542:X *57:8 43.4271 
2 *57:8 *544:A2 39.5743 
*END

*D_NET *58 0.000598105
*CONN
*I *544:A3 I *D sky130_fd_sc_hd__o31a_1
*I *543:X O *D sky130_fd_sc_hd__and4bb_1
*CAP
1 *544:A3 4.4093e-05
2 *543:X 9.39633e-05
3 *58:8 0.000138056
4 *544:A3 *534:B1 5.50049e-05
5 *544:A3 *109:12 1.56762e-05
6 *58:8 *544:B1 0
7 *58:8 *112:25 0
8 *544:A2 *544:A3 5.67058e-05
9 *42:8 *58:8 8.85189e-05
10 *55:14 *544:A3 4.06849e-05
11 *55:14 *58:8 6.54012e-05
12 *57:8 *58:8 0
*RES
1 *543:X *58:8 40.2579 
2 *58:8 *544:A3 39.5743 
*END

*D_NET *59 0.00102381
*CONN
*I *548:A1 I *D sky130_fd_sc_hd__o21a_1
*I *545:Y O *D sky130_fd_sc_hd__a21oi_1
*CAP
1 *548:A1 0
2 *545:Y 0.000214315
3 *59:8 0.000214315
4 *59:8 *547:A2 1.40958e-05
5 *59:8 *548:A2 5.67058e-05
6 *59:8 *60:107 1.03631e-05
7 *59:8 *78:53 3.06883e-05
8 *59:8 *78:68 7.07795e-05
9 *59:8 *94:37 0.000352426
10 *59:8 *124:24 7.53384e-06
11 *547:A3 *59:8 5.25848e-05
*RES
1 *545:Y *59:8 29.3593 
2 *59:8 *548:A1 23 
*END

*D_NET *60 0.011424
*CONN
*I *547:B1 I *D sky130_fd_sc_hd__a32o_1
*I *551:A2 I *D sky130_fd_sc_hd__a21o_1
*I *553:A2 I *D sky130_fd_sc_hd__a21o_1
*I *550:B I *D sky130_fd_sc_hd__nand2_1
*I *555:C I *D sky130_fd_sc_hd__nand3_1
*I *561:A2 I *D sky130_fd_sc_hd__a21oi_1
*I *558:B I *D sky130_fd_sc_hd__and2_1
*I *549:C_N I *D sky130_fd_sc_hd__or3b_1
*I *546:Y O *D sky130_fd_sc_hd__nor2_2
*CAP
1 *547:B1 0
2 *551:A2 1.49804e-05
3 *553:A2 0
4 *550:B 0.000495589
5 *555:C 0
6 *561:A2 0
7 *558:B 0.000344366
8 *549:C_N 0.000384296
9 *546:Y 0
10 *60:107 0.000163596
11 *60:87 1.49804e-05
12 *60:74 0.000963879
13 *60:57 0.00073795
14 *60:49 0.000524627
15 *60:42 0.000631084
16 *60:8 0.00142524
17 *60:4 0.00123629
18 *549:C_N *549:A 0.000138444
19 *549:C_N *557:A1 0
20 *549:C_N *114:62 7.1349e-05
21 *549:C_N *133:124 0
22 *550:B *63:10 5.19151e-05
23 *550:B *64:10 0.000160366
24 *550:B *92:22 1.65202e-05
25 *550:B *99:19 0
26 *550:B *111:16 5.67058e-05
27 *550:B *113:23 0
28 *550:B *114:62 2.93845e-05
29 *550:B *126:22 1.86493e-05
30 *551:A2 *119:44 5.50106e-05
31 *551:A2 *128:16 5.50106e-05
32 *558:B *557:A1 0
33 *558:B *557:B1 5.58315e-05
34 *558:B *560:B1 2.93845e-05
35 *558:B *562:A2 5.50106e-05
36 *558:B *78:40 0
37 *558:B *103:106 0
38 *558:B *133:124 0
39 *60:8 *593:A 9.75779e-05
40 *60:8 *91:36 0.000738486
41 *60:8 *132:77 6.07175e-05
42 *60:42 *547:A2 0
43 *60:42 *554:A 0.000133316
44 *60:42 *71:14 0.00014196
45 *60:42 *89:83 5.95248e-05
46 *60:42 *94:31 0
47 *60:42 *120:20 0
48 *60:49 *561:B1 6.82514e-05
49 *60:49 *71:14 0.000109159
50 *60:49 *119:23 8.65337e-05
51 *60:57 *561:B1 0.000663353
52 *60:57 *67:12 2.08324e-05
53 *60:57 *112:39 0.000141954
54 *60:57 *119:23 0.00024984
55 *60:57 *122:12 6.94054e-05
56 *60:74 *92:22 0.000672404
57 *60:107 *78:59 3.5471e-05
58 *60:107 *78:68 2.39868e-05
59 *60:107 *112:39 0
60 *60:107 *120:20 5.97612e-05
61 *43:8 *60:42 6.6869e-05
62 *56:40 *60:42 0.00014196
63 *56:40 *60:49 4.17736e-05
64 *56:44 *60:42 0
65 *59:8 *60:107 1.03631e-05
*RES
1 *546:Y *60:4 23 
2 *60:4 *60:8 25.6264 
3 *60:8 *549:C_N 45.0221 
4 *60:8 *558:B 43.6964 
5 *60:4 *60:42 39.8807 
6 *60:42 *561:A2 23 
7 *60:42 *60:49 3.00357 
8 *60:49 *60:57 25.0464 
9 *60:57 *555:C 38 
10 *60:57 *60:74 17.5792 
11 *60:74 *550:B 47.57 
12 *60:74 *60:87 15 
13 *60:87 *553:A2 23 
14 *60:87 *551:A2 23.6214 
15 *60:49 *60:107 32.5375 
16 *60:107 *547:B1 23 
*END

*D_NET *61 0.000198495
*CONN
*I *548:A2 I *D sky130_fd_sc_hd__o21a_1
*I *547:X O *D sky130_fd_sc_hd__a32o_1
*CAP
1 *548:A2 6.83209e-05
2 *547:X 6.83209e-05
3 *548:A2 *78:53 5.14746e-06
4 *59:8 *548:A2 5.67058e-05
*RES
1 *547:X *548:A2 47.0979 
*END

*D_NET *62 0.00543293
*CONN
*I *552:A1 I *D sky130_fd_sc_hd__a31oi_1
*I *549:X O *D sky130_fd_sc_hd__or3b_1
*CAP
1 *552:A1 0
2 *549:X 0.000928271
3 *62:14 0.000620976
4 *62:6 0.00154925
5 *62:6 *114:62 0.00129233
6 *62:14 *552:B1 4.34745e-05
7 *62:14 *593:A 0.000310861
8 *62:14 *594:A 4.95081e-05
9 *62:14 *601:A 0.000141879
10 *62:14 *90:59 0.00035673
11 *11:9 *62:14 0.000139647
*RES
1 *549:X *62:6 37.4379 
2 *62:6 *62:14 43.9614 
3 *62:14 *552:A1 23 
*END

*D_NET *63 0.000634619
*CONN
*I *552:A2 I *D sky130_fd_sc_hd__a31oi_1
*I *550:Y O *D sky130_fd_sc_hd__nand2_1
*CAP
1 *552:A2 0
2 *550:Y 0.000214652
3 *63:10 0.000214652
4 *63:10 *64:10 1.14452e-05
5 *63:10 *99:19 0
6 *63:10 *114:62 0.000141954
7 *550:B *63:10 5.19151e-05
*RES
1 *550:Y *63:10 41.8321 
2 *63:10 *552:A2 38 
*END

*D_NET *64 0.00149211
*CONN
*I *552:A3 I *D sky130_fd_sc_hd__a31oi_1
*I *551:X O *D sky130_fd_sc_hd__a21o_1
*CAP
1 *552:A3 0
2 *551:X 0.000477611
3 *64:10 0.000477611
4 *64:10 *90:67 0
5 *64:10 *126:22 8.62876e-05
6 *64:10 *128:16 0.000278785
7 *550:B *64:10 0.000160366
8 *63:10 *64:10 1.14452e-05
*RES
1 *551:X *64:10 46.6793 
2 *64:10 *552:A3 38 
*END

*D_NET *65 0.000506497
*CONN
*I *556:A1 I *D sky130_fd_sc_hd__a31oi_1
*I *553:X O *D sky130_fd_sc_hd__a21o_1
*CAP
1 *556:A1 0.000146315
2 *553:X 0.000146315
3 *556:A1 *555:B 1.41129e-05
4 *556:A1 *556:A2 5.50049e-05
5 *556:A1 *90:67 9.67842e-05
6 *556:A1 *119:44 4.79641e-05
*RES
1 *553:X *556:A1 49.0036 
*END

*D_NET *66 0.00225721
*CONN
*I *556:A2 I *D sky130_fd_sc_hd__a31oi_1
*I *554:X O *D sky130_fd_sc_hd__or4_1
*CAP
1 *556:A2 0.000124424
2 *554:X 0.00050505
3 *66:12 0.000629475
4 *556:A2 *555:B 9.67842e-05
5 *556:A2 *99:30 0.000144171
6 *556:A2 *122:12 6.56969e-05
7 *66:12 *92:12 5.58152e-06
8 *66:12 *92:22 0.000429416
9 *66:12 *115:52 0.000127984
10 *66:12 *120:20 2.46922e-05
11 *556:A1 *556:A2 5.50049e-05
12 *56:67 *66:12 4.89323e-05
*RES
1 *554:X *66:12 48.0944 
2 *66:12 *556:A2 49.1796 
*END

*D_NET *67 0.0007213
*CONN
*I *556:A3 I *D sky130_fd_sc_hd__a31oi_1
*I *555:Y O *D sky130_fd_sc_hd__nand3_1
*CAP
1 *556:A3 6.47785e-05
2 *555:Y 0.000166708
3 *67:12 0.000231487
4 *556:A3 *555:B 0.000110982
5 *556:A3 *78:68 0
6 *556:A3 *124:24 6.17437e-06
7 *67:12 *112:39 3.21239e-05
8 *67:12 *122:12 0
9 *67:12 *124:24 8.82147e-05
10 *60:57 *67:12 2.08324e-05
*RES
1 *555:Y *67:12 40.7964 
2 *67:12 *556:A3 39.595 
*END

*D_NET *68 0.000560811
*CONN
*I *560:A1 I *D sky130_fd_sc_hd__o31a_1
*I *557:X O *D sky130_fd_sc_hd__o41a_1
*CAP
1 *560:A1 2.14319e-05
2 *557:X 0.000109011
3 *68:8 0.000130443
4 *560:A1 *560:A2 5.50049e-05
5 *560:A1 *560:A3 2.4754e-05
6 *68:8 *531:A_N 0
7 *68:8 *557:B1 0
8 *68:8 *70:10 3.31683e-05
9 *68:8 *78:40 8.85189e-05
10 *68:8 *115:36 0
11 *56:25 *560:A1 9.84794e-05
*RES
1 *557:X *68:8 40.2579 
2 *68:8 *560:A1 39.0979 
*END

*D_NET *69 0.00215728
*CONN
*I *562:A2 I *D sky130_fd_sc_hd__a211o_1
*I *560:A2 I *D sky130_fd_sc_hd__o31a_1
*I *558:X O *D sky130_fd_sc_hd__and2_1
*CAP
1 *562:A2 0.000144154
2 *560:A2 0.000114656
3 *558:X 0
4 *69:4 0.000258809
5 *560:A2 *560:A3 5.50049e-05
6 *560:A2 *560:B1 0.000329998
7 *560:A2 *78:40 0.000120867
8 *562:A2 *560:B1 0.000337913
9 *562:A2 *78:40 1.76557e-05
10 *558:B *562:A2 5.50106e-05
11 *560:A1 *560:A2 5.50049e-05
12 *56:25 *560:A2 0.000155028
13 *56:25 *562:A2 0.000156457
14 *56:40 *562:A2 0.000356724
*RES
1 *558:X *69:4 23 
2 *69:4 *560:A2 27.9093 
3 *69:4 *562:A2 29.9807 
*END

*D_NET *70 0.000775928
*CONN
*I *560:A3 I *D sky130_fd_sc_hd__o31a_1
*I *559:X O *D sky130_fd_sc_hd__o211a_1
*CAP
1 *560:A3 8.39095e-05
2 *559:X 0.000134707
3 *70:10 0.000218616
4 *70:10 *531:A_N 0.000114083
5 *70:10 *107:53 9.75779e-05
6 *560:A1 *560:A3 2.4754e-05
7 *560:A2 *560:A3 5.50049e-05
8 *56:25 *560:A3 1.41077e-05
9 *68:8 *70:10 3.31683e-05
*RES
1 *559:X *70:10 40.6514 
2 *70:10 *560:A3 39.5743 
*END

*D_NET *71 0.00139487
*CONN
*I *562:B1 I *D sky130_fd_sc_hd__a211o_1
*I *561:Y O *D sky130_fd_sc_hd__a21oi_1
*CAP
1 *562:B1 0
2 *561:Y 0.00028644
3 *71:14 0.00028644
4 *71:14 *89:83 7.75329e-06
5 *71:14 *90:46 1.14452e-05
6 *71:14 *117:14 0.000148435
7 *71:14 *119:23 0.000196108
8 *43:8 *71:14 0
9 *56:40 *71:14 0.000207134
10 *60:42 *71:14 0.00014196
11 *60:49 *71:14 0.000109159
*RES
1 *561:Y *71:14 46.7363 
2 *71:14 *562:B1 38 
*END

*D_NET *72 0.000338408
*CONN
*I *564:C I *D sky130_fd_sc_hd__and3_1
*I *563:X O *D sky130_fd_sc_hd__or2_1
*CAP
1 *564:C 9.35964e-05
2 *563:X 9.35964e-05
3 *564:C *89:12 9.45097e-05
4 *564:C *89:22 5.67058e-05
*RES
1 *563:X *564:C 47.6571 
*END

*D_NET *73 0.000663898
*CONN
*I *566:C I *D sky130_fd_sc_hd__and3_1
*I *565:X O *D sky130_fd_sc_hd__a21o_1
*CAP
1 *566:C 1.83048e-05
2 *565:X 0.000209058
3 *73:10 0.000227363
4 *566:C *89:22 1.95448e-05
5 *73:10 *103:26 0.000164873
6 *73:10 *133:20 2.4754e-05
*RES
1 *565:X *73:10 41.2521 
2 *73:10 *566:C 38.2279 
*END

*D_NET *74 0.00155581
*CONN
*I *568:C I *D sky130_fd_sc_hd__and3_1
*I *567:Y O *D sky130_fd_sc_hd__nand2_1
*CAP
1 *568:C 0
2 *567:Y 0.000390184
3 *74:10 0.000390184
4 *74:10 *528:D 0.000184527
5 *74:10 *89:36 0.000384697
6 *74:10 *89:42 0.000107741
7 *74:10 *129:40 4.17736e-05
8 *74:10 *129:46 5.67058e-05
*RES
1 *567:Y *74:10 31.9693 
2 *74:10 *568:C 23 
*END

*D_NET *75 0.000886603
*CONN
*I *570:A2 I *D sky130_fd_sc_hd__a21oi_1
*I *569:Y O *D sky130_fd_sc_hd__nand2_1
*CAP
1 *570:A2 8.84348e-05
2 *569:Y 0.000207729
3 *75:10 0.000296164
4 *570:A2 *530:A1 5.67058e-05
5 *75:10 *569:B 5.70419e-05
6 *75:10 *95:12 3.22879e-05
7 *75:10 *95:36 8.62876e-05
8 *75:10 *96:10 0
9 *75:10 *112:25 1.14452e-05
10 *75:10 *112:31 5.05059e-05
*RES
1 *569:Y *75:10 41.8321 
2 *75:10 *570:A2 39.5743 
*END

*D_NET *76 0.00597359
*CONN
*I *537:B I *D sky130_fd_sc_hd__or4_1
*I *559:A1 I *D sky130_fd_sc_hd__o211a_1
*I *540:A2 I *D sky130_fd_sc_hd__o41a_1
*I *567:A I *D sky130_fd_sc_hd__nand2_1
*I *491:Y O *D sky130_fd_sc_hd__inv_2
*CAP
1 *537:B 0.000133281
2 *559:A1 0.000277934
3 *540:A2 0
4 *567:A 2.75731e-05
5 *491:Y 0
6 *76:27 0.000657853
7 *76:14 0.00169017
8 *76:4 0.00141596
9 *537:B *504:D_N 0.000141954
10 *537:B *537:C 2.18506e-05
11 *559:A1 *536:B_N 0
12 *559:A1 *559:A2 0.000133309
13 *559:A1 *78:23 8.25811e-05
14 *559:A1 *114:33 0.000185351
15 *559:A1 *115:36 0
16 *559:A1 *132:60 1.37246e-05
17 *559:A1 *133:64 5.86473e-05
18 *567:A *528:D 2.57449e-05
19 *567:A *103:26 0
20 *567:A *133:12 0
21 *76:14 *524:A 0
22 *76:14 *89:12 0
23 *76:14 *91:8 2.5415e-05
24 *76:14 *112:31 0.000596706
25 *76:27 *528:D 7.8735e-05
26 *76:27 *132:60 3.35885e-05
27 *76:27 *133:12 0
28 *76:27 *133:40 0.000363064
29 *76:27 *133:64 1.01436e-05
30 *76:27 *135:47 0
31 *76:27 *135:99 0
*RES
1 *491:Y *76:4 23 
2 *76:4 *76:14 35.791 
3 *76:14 *567:A 38.6732 
4 *76:14 *76:27 7.98536 
5 *76:27 *540:A2 38 
6 *76:27 *559:A1 43.3857 
7 *76:4 *537:B 25.0507 
*END

*D_NET *77 0.00275302
*CONN
*I *533:A1 I *D sky130_fd_sc_hd__o2111a_1
*I *492:Y O *D sky130_fd_sc_hd__inv_2
*CAP
1 *533:A1 3.93039e-05
2 *492:Y 0.000152293
3 *77:16 0.000549775
4 *77:8 0.000662764
5 *533:A1 *533:A2 9.58714e-05
6 *533:A1 *533:C1 4.9662e-05
7 *77:8 *78:40 0
8 *77:8 *109:24 0.000166522
9 *77:8 *133:124 0
10 *77:8 *135:99 0.000289704
11 *77:16 *94:12 0.000138718
12 *77:16 *107:53 0.000435854
13 *77:16 *109:18 1.22822e-05
14 *77:16 *114:62 9.5877e-05
15 *77:16 *135:64 6.4393e-05
*RES
1 *492:Y *77:8 42.0186 
2 *77:8 *77:16 38.2443 
3 *77:16 *533:A1 39.0979 
*END

*D_NET *78 0.00981987
*CONN
*I *555:A I *D sky130_fd_sc_hd__nand3_1
*I *538:A I *D sky130_fd_sc_hd__nand3_1
*I *547:A1 I *D sky130_fd_sc_hd__a32o_1
*I *562:A1 I *D sky130_fd_sc_hd__a211o_1
*I *559:C1 I *D sky130_fd_sc_hd__o211a_1
*I *533:A2 I *D sky130_fd_sc_hd__o2111a_1
*I *501:Y O *D sky130_fd_sc_hd__inv_2
*CAP
1 *555:A 7.05017e-05
2 *538:A 0
3 *547:A1 0
4 *562:A1 2.34823e-05
5 *559:C1 0
6 *533:A2 0.000226615
7 *501:Y 0
8 *78:74 0.000342036
9 *78:68 0.000784545
10 *78:59 3.58877e-05
11 *78:53 0.000911186
12 *78:40 0.00152521
13 *78:23 8.46056e-05
14 *78:6 0.000686017
15 *78:4 0.00137324
16 *533:A2 *533:C1 4.40918e-05
17 *533:A2 *540:A4 4.44023e-05
18 *533:A2 *540:B1 1.94835e-05
19 *555:A *124:24 0.000139352
20 *78:6 *540:A4 0.000462588
21 *78:23 *541:B 2.13834e-05
22 *78:23 *98:8 1.01436e-05
23 *78:23 *114:33 2.50928e-05
24 *78:23 *133:64 8.04817e-05
25 *78:40 *531:A_N 0
26 *78:40 *540:A4 8.6949e-05
27 *78:40 *557:B1 0
28 *78:40 *560:B1 9.24795e-06
29 *78:40 *91:59 5.55645e-05
30 *78:40 *135:99 0
31 *78:53 *547:A2 9.67842e-05
32 *78:53 *548:B1 0.000108944
33 *78:53 *560:B1 0.000123934
34 *78:59 *120:20 5.79438e-05
35 *78:68 *555:B 0
36 *78:68 *124:24 7.8841e-05
37 *78:74 *545:A1 0
38 *78:74 *94:43 0
39 *78:74 *94:51 0.000447003
40 *78:74 *112:39 0.000648054
41 *533:A1 *533:A2 9.58714e-05
42 *547:A3 *78:53 2.02872e-05
43 *548:A2 *78:53 5.14746e-06
44 *556:A3 *78:68 0
45 *558:B *78:40 0
46 *559:A1 *78:23 8.25811e-05
47 *560:A2 *78:40 0.000120867
48 *562:A2 *78:40 1.76557e-05
49 *55:14 *533:A2 9.84794e-05
50 *56:25 *78:40 0.000312348
51 *56:40 *78:40 0.000193575
52 *59:8 *78:53 3.06883e-05
53 *59:8 *78:68 7.07795e-05
54 *60:107 *78:59 3.5471e-05
55 *60:107 *78:68 2.39868e-05
56 *68:8 *78:40 8.85189e-05
57 *77:8 *78:40 0
*RES
1 *501:Y *78:4 23 
2 *78:4 *78:6 5.38571 
3 *78:6 *533:A2 27.4743 
4 *78:6 *78:23 31.9057 
5 *78:23 *559:C1 23 
6 *78:4 *78:40 46.5921 
7 *78:40 *562:A1 23.4971 
8 *78:40 *78:53 9.11429 
9 *78:53 *78:59 30.8493 
10 *78:59 *547:A1 23 
11 *78:53 *78:68 5.75857 
12 *78:68 *78:74 38.9486 
13 *78:74 *538:A 23 
14 *78:68 *555:A 24.5743 
*END

*D_NET *79 0.0102472
*CONN
*I *512:B I *D sky130_fd_sc_hd__or2_1
*I *520:B I *D sky130_fd_sc_hd__or2_1
*I *612:A I *D sky130_fd_sc_hd__buf_1
*I *508:B I *D sky130_fd_sc_hd__or2_1
*I *504:Y O *D sky130_fd_sc_hd__nor4b_1
*CAP
1 *512:B 0.00022999
2 *520:B 0
3 *612:A 0
4 *508:B 0.000547247
5 *504:Y 0.000160349
6 *79:44 0.000531732
7 *79:36 0.00131894
8 *79:14 0.000684397
9 *79:10 0.00210799
10 *79:8 0.00157397
11 *508:B *508:A 0.000361027
12 *508:B *104:36 5.61414e-05
13 *508:B *142:8 0
14 *508:B *142:19 0.000172197
15 *512:B *507:C1 0
16 *512:B *512:A 0.00028731
17 *512:B *136:70 9.24795e-06
18 *512:B *148:12 0.000143655
19 *79:8 *105:14 5.3304e-05
20 *79:8 *134:27 0.000108836
21 *79:10 *136:57 1.59094e-05
22 *79:14 *503:B 1.22803e-05
23 *79:14 *80:39 0.000231017
24 *79:14 *80:47 1.23172e-05
25 *79:14 *104:36 4.21594e-06
26 *79:14 *136:53 0.000138177
27 *79:14 *136:118 6.10775e-05
28 *79:36 *507:C1 5.70419e-05
29 *79:36 *513:A2 6.83591e-06
30 *79:36 *84:8 0.000189462
31 *79:36 *115:85 1.69977e-05
32 *79:36 *136:57 5.61255e-06
33 *79:44 *110:12 5.50106e-05
34 *79:44 *111:10 0.000169665
35 *79:44 *111:16 0.000246767
36 *79:44 *111:38 0.000118174
37 *79:44 *116:10 0
38 *79:44 *117:45 1.94812e-05
39 *79:44 *136:83 0
40 *539:A3 *79:10 5.3304e-05
41 *32:8 *508:B 0
42 *35:8 *79:14 0
43 *41:10 *79:10 0.000116886
44 *53:12 *79:8 0.000305431
45 *53:12 *79:10 6.52495e-05
*RES
1 *504:Y *79:8 27.3293 
2 *79:8 *79:10 24.4429 
3 *79:10 *79:14 18.6664 
4 *79:14 *508:B 49.9936 
5 *79:14 *612:A 38 
6 *79:10 *79:36 8.265 
7 *79:36 *79:44 41.3307 
8 *79:44 *520:B 23 
9 *79:36 *512:B 28.4271 
*END

*D_NET *80 0.0153336
*CONN
*I *507:A2 I *D sky130_fd_sc_hd__o211a_1
*I *519:A2 I *D sky130_fd_sc_hd__o211a_1
*I *517:A2 I *D sky130_fd_sc_hd__o211a_1
*I *515:A2 I *D sky130_fd_sc_hd__o211a_1
*I *511:A2 I *D sky130_fd_sc_hd__o211a_1
*I *513:A2 I *D sky130_fd_sc_hd__o211a_1
*I *521:A2 I *D sky130_fd_sc_hd__o211a_1
*I *509:A2 I *D sky130_fd_sc_hd__o211a_1
*I *523:B I *D sky130_fd_sc_hd__nand2_2
*I *522:B I *D sky130_fd_sc_hd__and2_2
*I *505:X O *D sky130_fd_sc_hd__or4b_4
*CAP
1 *507:A2 0
2 *519:A2 0.000349105
3 *517:A2 0.000153066
4 *515:A2 0
5 *511:A2 0.000114656
6 *513:A2 1.49386e-05
7 *521:A2 0
8 *509:A2 0
9 *523:B 2.14194e-05
10 *522:B 0.000172113
11 *505:X 0
12 *80:107 0.000863304
13 *80:94 0.000567541
14 *80:81 0.000938459
15 *80:73 0.000931711
16 *80:54 0.000377666
17 *80:47 0.00072707
18 *80:39 0.00131684
19 *80:26 0.000802856
20 *80:15 0.000722778
21 *80:4 0.000611978
22 *511:A2 *511:C1 0
23 *511:A2 *114:79 0.000166513
24 *513:A2 *84:8 1.4649e-05
25 *513:A2 *115:85 8.22421e-06
26 *517:A2 *517:A1 4.07999e-05
27 *517:A2 *577:CLK 9.67842e-05
28 *517:A2 *117:45 0
29 *517:A2 *128:31 7.43025e-06
30 *519:A2 *518:B 0
31 *519:A2 *578:CLK 0.000104133
32 *519:A2 *104:69 1.12487e-05
33 *519:A2 *125:29 0
34 *522:B *505:D_N 8.1796e-05
35 *522:B *599:A 0.000426179
36 *522:B *135:20 0.000564544
37 *523:B *523:A 5.90675e-06
38 *80:15 *599:A 0.000143655
39 *80:15 *90:10 0.000402801
40 *80:15 *136:29 0.000188955
41 *80:15 *136:38 4.95081e-05
42 *80:26 *509:C1 4.00259e-06
43 *80:26 *136:38 0.000205566
44 *80:26 *136:53 4.21471e-05
45 *80:39 *509:C1 9.72057e-06
46 *80:39 *112:52 0
47 *80:39 *136:53 0.000838044
48 *80:47 *503:B 0.00019158
49 *80:47 *521:C1 1.78402e-05
50 *80:47 *88:10 0.000163361
51 *80:47 *115:85 0.000152086
52 *80:47 *117:39 2.15048e-05
53 *80:47 *137:10 6.68587e-05
54 *80:47 *138:8 0
55 *80:73 *81:10 1.05441e-05
56 *80:73 *112:52 0.000406017
57 *80:81 *634:A 4.6595e-05
58 *80:81 *81:10 8.47428e-05
59 *80:81 *112:52 4.51887e-05
60 *80:81 *136:57 0.0002263
61 *80:81 *136:70 0.000430442
62 *80:81 *148:12 4.79641e-05
63 *80:94 *85:10 0.000379422
64 *80:94 *104:69 5.86473e-05
65 *80:94 *114:79 0.000327912
66 *80:94 *116:46 6.48142e-05
67 *80:94 *136:83 0
68 *80:107 *518:B 0
69 *80:107 *104:69 0.000171951
70 *80:107 *116:46 1.59094e-05
71 *80:107 *130:36 0
72 *80:107 *144:10 5.15848e-05
73 *32:8 *80:81 0
74 *35:8 *80:39 0
75 *36:10 *80:107 4.04598e-06
76 *38:8 *519:A2 0
77 *79:14 *80:39 0.000231017
78 *79:14 *80:47 1.23172e-05
79 *79:36 *513:A2 6.83591e-06
*RES
1 *505:X *80:4 23 
2 *80:4 *522:B 30.3121 
3 *80:4 *80:15 10.6264 
4 *80:15 *523:B 23.4971 
5 *80:15 *80:26 5.88286 
6 *80:26 *509:A2 23 
7 *80:26 *80:39 28.7854 
8 *80:39 *80:47 29.9454 
9 *80:47 *521:A2 23 
10 *80:39 *80:54 0.621429 
11 *80:54 *513:A2 38.4816 
12 *80:54 *80:73 17.1499 
13 *80:73 *80:81 40.3986 
14 *80:81 *511:A2 40.2579 
15 *80:81 *80:94 21.8357 
16 *80:94 *515:A2 23 
17 *80:94 *80:107 22.2707 
18 *80:107 *517:A2 41.19 
19 *80:107 *519:A2 44.4836 
20 *80:73 *507:A2 38 
*END

*D_NET *81 0.00158412
*CONN
*I *507:B1 I *D sky130_fd_sc_hd__o211a_1
*I *506:X O *D sky130_fd_sc_hd__or2_1
*CAP
1 *507:B1 0
2 *506:X 0.000542166
3 *81:10 0.000542166
4 *81:10 *104:56 0.000404502
5 *81:10 *148:8 0
6 *32:8 *81:10 0
7 *80:73 *81:10 1.05441e-05
8 *80:81 *81:10 8.47428e-05
*RES
1 *506:X *81:10 47.5079 
2 *81:10 *507:B1 38 
*END

*D_NET *82 0.00097699
*CONN
*I *509:B1 I *D sky130_fd_sc_hd__o211a_1
*I *508:X O *D sky130_fd_sc_hd__or2_1
*CAP
1 *509:B1 0
2 *508:X 0.000453817
3 *82:10 0.000453817
4 *82:10 *113:10 6.93553e-05
5 *33:8 *82:10 0
*RES
1 *508:X *82:10 45.25 
2 *82:10 *509:B1 38 
*END

*D_NET *83 0.000474765
*CONN
*I *511:B1 I *D sky130_fd_sc_hd__o211a_1
*I *510:X O *D sky130_fd_sc_hd__or2_1
*CAP
1 *511:B1 0.000161582
2 *510:X 0.000161582
3 *511:B1 *130:21 0.000151601
*RES
1 *510:X *511:B1 49.5007 
*END

*D_NET *84 0.00126663
*CONN
*I *513:B1 I *D sky130_fd_sc_hd__o211a_1
*I *512:X O *D sky130_fd_sc_hd__or2_1
*CAP
1 *513:B1 0
2 *512:X 0.00017794
3 *84:8 0.00017794
4 *84:8 *507:C1 5.67058e-05
5 *84:8 *115:85 3.49686e-05
6 *84:8 *136:57 0.000614968
7 *513:A2 *84:8 1.4649e-05
8 *79:36 *84:8 0.000189462
*RES
1 *512:X *84:8 30.3277 
2 *84:8 *513:B1 23 
*END

*D_NET *85 0.00129379
*CONN
*I *515:B1 I *D sky130_fd_sc_hd__o211a_1
*I *514:X O *D sky130_fd_sc_hd__or2_1
*CAP
1 *515:B1 0
2 *514:X 0.000355165
3 *85:10 0.000355165
4 *85:10 *634:A 7.72885e-05
5 *85:10 *136:83 0.000123988
6 *85:10 *136:94 2.76611e-06
7 *80:94 *85:10 0.000379422
*RES
1 *514:X *85:10 45.6021 
2 *85:10 *515:B1 38 
*END

*D_NET *86 0.000982042
*CONN
*I *517:B1 I *D sky130_fd_sc_hd__o211a_1
*I *516:X O *D sky130_fd_sc_hd__or2_1
*CAP
1 *517:B1 0
2 *516:X 0.000293047
3 *86:10 0.000293047
4 *86:10 *519:C1 2.76611e-06
5 *86:10 *111:38 0.000114856
6 *86:10 *126:16 0.000224679
7 *86:10 *136:94 5.36457e-05
*RES
1 *516:X *86:10 43.2614 
2 *86:10 *517:B1 38 
*END

*D_NET *87 0.000795427
*CONN
*I *519:B1 I *D sky130_fd_sc_hd__o211a_1
*I *518:X O *D sky130_fd_sc_hd__or2_1
*CAP
1 *519:B1 0
2 *518:X 0.000236218
3 *87:8 0.000236218
4 *87:8 *518:A 0.00010018
5 *87:8 *519:A1 5.90675e-06
6 *87:8 *519:C1 2.02517e-05
7 *87:8 *118:36 5.25848e-05
8 *87:8 *118:53 0.000144067
*RES
1 *518:X *87:8 28.4064 
2 *87:8 *519:B1 23 
*END

*D_NET *88 0.00162117
*CONN
*I *521:B1 I *D sky130_fd_sc_hd__o211a_1
*I *520:X O *D sky130_fd_sc_hd__or2_1
*CAP
1 *521:B1 0
2 *520:X 0.000260954
3 *88:10 0.000260954
4 *88:10 *502:A 9.76358e-05
5 *88:10 *521:C1 8.06039e-05
6 *88:10 *551:B1 0.000568892
7 *88:10 *128:31 0.000188766
8 *80:47 *88:10 0.000163361
*RES
1 *520:X *88:10 47.5493 
2 *88:10 *521:B1 38 
*END

*D_NET *89 0.0140195
*CONN
*I *548:B1 I *D sky130_fd_sc_hd__o21a_1
*I *560:B1 I *D sky130_fd_sc_hd__o31a_1
*I *564:A I *D sky130_fd_sc_hd__and3_1
*I *566:A I *D sky130_fd_sc_hd__and3_1
*I *568:A I *D sky130_fd_sc_hd__and3_1
*I *544:B1 I *D sky130_fd_sc_hd__o31a_1
*I *534:B1 I *D sky130_fd_sc_hd__o21a_1
*I *522:X O *D sky130_fd_sc_hd__and2_2
*CAP
1 *548:B1 0.000102941
2 *560:B1 0.000704293
3 *564:A 0
4 *566:A 0
5 *568:A 0
6 *544:B1 0.000198176
7 *534:B1 0.0002292
8 *522:X 0
9 *89:83 0.00138283
10 *89:42 0.000969425
11 *89:36 0.00104312
12 *89:22 0.0013685
13 *89:12 0.00114849
14 *89:6 0.000856667
15 *534:B1 *109:12 0.000571488
16 *534:B1 *112:25 4.85876e-05
17 *89:12 *505:D_N 1.86973e-05
18 *89:12 *91:23 1.01436e-05
19 *89:12 *103:88 0
20 *89:12 *135:20 0.000313249
21 *89:22 *567:B 0.00010018
22 *89:22 *93:14 1.68748e-05
23 *89:22 *103:18 2.40076e-05
24 *89:22 *135:20 0.000166454
25 *89:22 *135:24 0.000701917
26 *89:36 *528:D 6.44887e-05
27 *89:36 *567:B 2.4754e-05
28 *89:36 *95:6 0.000126847
29 *89:36 *95:10 5.90675e-06
30 *89:36 *107:21 2.472e-05
31 *89:36 *129:40 5.50049e-05
32 *89:36 *129:46 5.50106e-05
33 *89:36 *133:20 6.07611e-06
34 *89:42 *597:A 1.01436e-05
35 *89:42 *95:6 2.25419e-05
36 *89:42 *95:10 2.4754e-05
37 *89:42 *96:10 0
38 *89:42 *107:31 0
39 *89:42 *109:18 0
40 *89:42 *112:25 0
41 *89:42 *129:46 0
42 *89:42 *132:14 0.00016841
43 *89:42 *132:34 3.53348e-05
44 *89:83 *505:D_N 4.24035e-05
45 *89:83 *554:A 5.3051e-05
46 *89:83 *554:D 0.000133316
47 *89:83 *90:46 0.000102639
48 *89:83 *91:23 0.000166784
49 *89:83 *91:32 0.000422784
50 *89:83 *107:64 0
51 *89:83 *132:81 0.000125375
52 *544:A3 *534:B1 5.50049e-05
53 *558:B *560:B1 2.93845e-05
54 *560:A2 *560:B1 0.000329998
55 *562:A2 *560:B1 0.000337913
56 *564:C *89:12 9.45097e-05
57 *564:C *89:22 5.67058e-05
58 *566:C *89:22 1.95448e-05
59 *589:D *89:22 0.000178691
60 *43:8 *89:83 3.70094e-05
61 *50:10 *89:42 5.50106e-05
62 *51:8 *89:42 8.47448e-05
63 *55:14 *544:B1 3.61366e-06
64 *56:25 *560:B1 0.000228903
65 *57:8 *544:B1 6.10775e-05
66 *58:8 *544:B1 0
67 *60:42 *89:83 5.95248e-05
68 *71:14 *89:83 7.75329e-06
69 *74:10 *89:36 0.000384697
70 *74:10 *89:42 0.000107741
71 *76:14 *89:12 0
72 *78:40 *560:B1 9.24795e-06
73 *78:53 *548:B1 0.000108944
74 *78:53 *560:B1 0.000123934
*RES
1 *522:X *89:6 38 
2 *89:6 *89:12 20.0336 
3 *89:12 *89:22 15.7221 
4 *89:22 *89:36 40.9371 
5 *89:36 *89:42 26.6 
6 *89:42 *534:B1 45.1879 
7 *89:42 *544:B1 40.4236 
8 *89:36 *568:A 23 
9 *89:22 *566:A 23 
10 *89:12 *564:A 23 
11 *89:6 *89:83 28.8786 
12 *89:83 *560:B1 37.645 
13 *89:83 *548:B1 25.0714 
*END

*D_NET *90 0.0142391
*CONN
*I *552:B1 I *D sky130_fd_sc_hd__a31oi_1
*I *556:B1 I *D sky130_fd_sc_hd__a31oi_1
*I *562:C1 I *D sky130_fd_sc_hd__a211o_1
*I *570:B1 I *D sky130_fd_sc_hd__a21oi_1
*I *539:B1 I *D sky130_fd_sc_hd__a31oi_1
*I *523:Y O *D sky130_fd_sc_hd__nand2_2
*CAP
1 *552:B1 1.00761e-05
2 *556:B1 0
3 *562:C1 0
4 *570:B1 0
5 *539:B1 0
6 *523:Y 0.00026992
7 *90:67 0.000331745
8 *90:59 0.000683191
9 *90:46 0.000647104
10 *90:31 0.00127905
11 *90:27 0.00260015
12 *90:19 0.00103036
13 *90:10 0.000284907
14 *552:B1 *594:A 5.50106e-05
15 *90:10 *101:10 1.63599e-05
16 *90:10 *136:29 0.000401106
17 *90:19 *101:10 5.08422e-06
18 *90:27 *103:12 0
19 *90:27 *105:28 0.000770635
20 *90:27 *112:31 0.00139569
21 *90:27 *112:52 0.000212122
22 *90:27 *115:52 0
23 *90:31 *524:A 5.50106e-05
24 *90:31 *526:A 9.58714e-05
25 *90:31 *530:A1 0.000123934
26 *90:31 *537:C 0.000178477
27 *90:31 *93:6 2.61526e-05
28 *90:31 *106:12 0.000354116
29 *90:31 *132:49 0.000170529
30 *90:31 *133:6 7.44161e-06
31 *90:31 *133:40 4.95081e-05
32 *90:31 *135:43 0.000183733
33 *90:31 *135:51 0.000439364
34 *90:46 *554:B 0.000171296
35 *90:46 *103:8 0
36 *90:46 *103:12 0
37 *90:46 *103:106 0
38 *90:46 *105:28 4.87927e-05
39 *90:46 *107:60 9.67842e-05
40 *90:46 *107:64 0.000107218
41 *90:46 *107:68 0.000160643
42 *90:46 *115:36 0.000102313
43 *90:59 *593:A 5.50106e-05
44 *90:59 *594:A 0.000300018
45 *90:59 *99:19 0
46 *90:59 *101:10 0.000192091
47 *90:67 *553:A1 1.56762e-05
48 *90:67 *555:B 1.24376e-05
49 *90:67 *99:19 6.65664e-05
50 *90:67 *99:30 0.000114174
51 *90:67 *115:52 4.45839e-05
52 *90:67 *119:44 5.50049e-05
53 *90:67 *126:22 0
54 *90:67 *128:16 5.99567e-06
55 *556:A1 *90:67 9.67842e-05
56 *41:10 *90:10 0
57 *62:14 *552:B1 4.34745e-05
58 *62:14 *90:59 0.00035673
59 *64:10 *90:67 0
60 *71:14 *90:46 1.14452e-05
61 *80:15 *90:10 0.000402801
62 *89:83 *90:46 0.000102639
*RES
1 *523:Y *90:10 45.7471 
2 *90:10 *539:B1 38 
3 *90:10 *90:19 0.321071 
4 *90:19 *90:27 19.2965 
5 *90:27 *90:31 40.8721 
6 *90:31 *570:B1 23 
7 *90:27 *90:46 44.21 
8 *90:46 *562:C1 38 
9 *90:19 *90:59 24.5596 
10 *90:59 *90:67 36.8771 
11 *90:67 *556:B1 23 
12 *90:59 *552:B1 23.6214 
*END

*D_NET *91 0.00752055
*CONN
*I *554:D I *D sky130_fd_sc_hd__or4_1
*I *557:A4 I *D sky130_fd_sc_hd__o41a_1
*I *540:A4 I *D sky130_fd_sc_hd__o41a_1
*I *537:D I *D sky130_fd_sc_hd__or4_1
*I *564:B I *D sky130_fd_sc_hd__and3_1
*I *524:Y O *D sky130_fd_sc_hd__nand2_1
*CAP
1 *554:D 0.000195225
2 *557:A4 0
3 *540:A4 0.000270073
4 *537:D 0
5 *564:B 0
6 *524:Y 5.00664e-05
7 *91:59 0.000159575
8 *91:36 0.000772845
9 *91:32 0.000791822
10 *91:23 0.000523752
11 *91:12 0.00036995
12 *91:8 0.000149664
13 *540:A4 *540:B1 6.87053e-05
14 *540:A4 *114:52 1.21972e-05
15 *540:A4 *132:77 0.000335392
16 *554:D *554:A 0.000139352
17 *554:D *554:B 5.97178e-05
18 *554:D *107:64 0
19 *554:D *115:36 0.000308039
20 *91:8 *524:A 4.334e-05
21 *91:12 *599:A 0.000141954
22 *91:23 *524:A 0
23 *91:23 *599:A 0.000172996
24 *91:23 *108:26 1.62061e-05
25 *91:32 *107:68 0
26 *91:32 *108:26 2.43703e-05
27 *91:36 *132:77 0.000703085
28 *91:59 *133:124 6.57906e-05
29 *533:A2 *540:A4 4.44023e-05
30 *60:8 *91:36 0.000738486
31 *76:14 *91:8 2.5415e-05
32 *78:6 *540:A4 0.000462588
33 *78:40 *540:A4 8.6949e-05
34 *78:40 *91:59 5.55645e-05
35 *89:12 *91:23 1.01436e-05
36 *89:83 *554:D 0.000133316
37 *89:83 *91:23 0.000166784
38 *89:83 *91:32 0.000422784
*RES
1 *524:Y *91:8 39.2014 
2 *91:8 *91:12 16.5743 
3 *91:12 *564:B 23 
4 *91:12 *91:23 19.6607 
5 *91:23 *537:D 38 
6 *91:23 *91:32 5.77929 
7 *91:32 *91:36 26.5793 
8 *91:36 *540:A4 31.5757 
9 *91:36 *91:59 33.0243 
10 *91:59 *557:A4 23 
11 *91:32 *554:D 43.3857 
*END

*D_NET *92 0.00352117
*CONN
*I *547:B2 I *D sky130_fd_sc_hd__a32o_1
*I *551:A1 I *D sky130_fd_sc_hd__a21o_1
*I *525:X O *D sky130_fd_sc_hd__and3_1
*CAP
1 *547:B2 1.01682e-05
2 *551:A1 0
3 *525:X 0.000206645
4 *92:22 0.00087766
5 *92:12 0.00109447
6 *547:B2 *545:A1 5.09387e-06
7 *547:B2 *120:20 0
8 *92:12 *545:A1 1.39858e-05
9 *92:12 *94:43 3.56594e-05
10 *92:12 *120:20 0
11 *92:12 *134:40 5.50049e-05
12 *92:22 *104:112 0
13 *92:22 *115:52 1.32844e-05
14 *550:B *92:22 1.65202e-05
15 *56:67 *547:B2 1.05441e-05
16 *56:67 *92:22 7.47278e-05
17 *60:74 *92:22 0.000672404
18 *66:12 *92:12 5.58152e-06
19 *66:12 *92:22 0.000429416
*RES
1 *525:X *92:12 40.9725 
2 *92:12 *92:22 34.2193 
3 *92:22 *551:A1 23 
4 *92:12 *547:B2 38.3211 
*END

*D_NET *93 0.00280231
*CONN
*I *549:B I *D sky130_fd_sc_hd__or3b_1
*I *566:B I *D sky130_fd_sc_hd__and3_1
*I *567:B I *D sky130_fd_sc_hd__nand2_1
*I *526:Y O *D sky130_fd_sc_hd__nand3_1
*CAP
1 *549:B 0
2 *566:B 0
3 *567:B 9.62556e-05
4 *526:Y 7.17915e-05
5 *93:36 0.000251641
6 *93:14 0.000554362
7 *93:6 0.000781539
8 *93:6 *526:A 4.9662e-05
9 *93:6 *106:12 6.17437e-06
10 *93:6 *133:6 9.58714e-05
11 *93:6 *133:116 9.67842e-05
12 *93:14 *526:A 4.75593e-05
13 *93:14 *103:18 0.000109064
14 *93:14 *106:12 0
15 *93:36 *526:A 0
16 *93:36 *106:12 5.12254e-05
17 *93:36 *109:24 0
18 *93:36 *133:116 8.60475e-05
19 *93:36 *133:124 0.000293558
20 *93:36 *135:99 0
21 *589:D *567:B 3.13395e-05
22 *589:D *93:14 1.14762e-05
23 *89:22 *567:B 0.00010018
24 *89:22 *93:14 1.68748e-05
25 *89:36 *567:B 2.4754e-05
26 *90:31 *93:6 2.61526e-05
*RES
1 *526:Y *93:6 25.0507 
2 *93:6 *93:14 36.4629 
3 *93:14 *567:B 25.7757 
4 *93:14 *566:B 23 
5 *93:6 *93:36 35.4686 
6 *93:36 *549:B 23 
*END

*D_NET *94 0.0114754
*CONN
*I *542:A I *D sky130_fd_sc_hd__and2_1
*I *547:A2 I *D sky130_fd_sc_hd__a32o_1
*I *545:A1 I *D sky130_fd_sc_hd__a21oi_1
*I *535:A1 I *D sky130_fd_sc_hd__a21o_1
*I *538:B I *D sky130_fd_sc_hd__nand3_1
*I *533:B1 I *D sky130_fd_sc_hd__o2111a_1
*I *527:X O *D sky130_fd_sc_hd__and2b_1
*CAP
1 *542:A 0.000207486
2 *547:A2 0.000113365
3 *545:A1 6.7291e-05
4 *535:A1 0.000199593
5 *538:B 0
6 *533:B1 9.63283e-05
7 *527:X 0.000198212
8 *94:51 0.000304299
9 *94:43 0.000702185
10 *94:37 0.000526524
11 *94:31 0.0027202
12 *94:23 0.00271653
13 *94:12 0.000457689
14 *535:A1 *120:39 0.000339977
15 *535:A1 *120:45 5.10805e-05
16 *535:A1 *124:12 0.000228001
17 *542:A *541:B 6.12496e-06
18 *542:A *541:C_N 0
19 *542:A *114:33 0.000269775
20 *547:A2 *120:20 4.8124e-05
21 *94:12 *129:46 0
22 *94:12 *129:55 0
23 *94:12 *135:64 1.00765e-05
24 *94:23 *536:C 6.12496e-06
25 *94:23 *541:B 0
26 *94:23 *541:C_N 0
27 *94:23 *129:55 0
28 *94:31 *120:20 5.58702e-05
29 *94:31 *133:91 0.000123707
30 *94:43 *120:20 0
31 *94:43 *120:39 0.000182826
32 *94:43 *134:40 8.80821e-05
33 *94:51 *112:39 1.22906e-05
34 *94:51 *129:12 5.12254e-05
35 *94:51 *134:27 3.81391e-05
36 *94:51 *134:40 0.000116946
37 *542:B *542:A 0.000102093
38 *547:A3 *547:A2 5.50106e-05
39 *547:B2 *545:A1 5.09387e-06
40 *55:14 *533:B1 0.000141954
41 *56:25 *542:A 4.6595e-05
42 *56:44 *547:A2 3.39192e-05
43 *56:67 *545:A1 3.61511e-05
44 *56:67 *94:31 1.78309e-05
45 *59:8 *547:A2 1.40958e-05
46 *59:8 *94:37 0.000352426
47 *60:42 *547:A2 0
48 *60:42 *94:31 0
49 *77:16 *94:12 0.000138718
50 *78:53 *547:A2 9.67842e-05
51 *78:74 *545:A1 0
52 *78:74 *94:43 0
53 *78:74 *94:51 0.000447003
54 *92:12 *545:A1 1.39858e-05
55 *92:12 *94:43 3.56594e-05
*RES
1 *527:X *94:12 41.7286 
2 *94:12 *533:B1 39.5743 
3 *94:12 *94:23 2.43393 
4 *94:23 *94:31 22.4224 
5 *94:31 *94:37 33.9564 
6 *94:37 *94:43 18.9564 
7 *94:43 *94:51 37.5814 
8 *94:51 *538:B 23 
9 *94:43 *535:A1 28.8829 
10 *94:37 *545:A1 39.2014 
11 *94:31 *547:A2 40.6514 
12 *94:23 *542:A 43.4375 
*END

*D_NET *95 0.00229405
*CONN
*I *568:B I *D sky130_fd_sc_hd__and3_1
*I *530:A2 I *D sky130_fd_sc_hd__o21a_1
*I *529:B I *D sky130_fd_sc_hd__or2_1
*I *569:B I *D sky130_fd_sc_hd__nand2_1
*I *528:Y O *D sky130_fd_sc_hd__nand4_1
*CAP
1 *568:B 0
2 *530:A2 0
3 *529:B 8.55272e-06
4 *569:B 6.87506e-05
5 *528:Y 0.00022076
6 *95:36 8.81438e-05
7 *95:12 0.000103155
8 *95:10 0.00029964
9 *95:6 0.000406405
10 *529:B *569:A 1.73222e-05
11 *569:B *569:A 3.81946e-05
12 *95:10 *96:10 3.22879e-05
13 *95:10 *132:8 0.000144231
14 *95:10 *132:14 0.000427839
15 *95:12 *569:A 4.19743e-05
16 *95:12 *132:14 1.32314e-05
17 *95:36 *96:10 2.79004e-05
18 *51:8 *95:36 0
19 *75:10 *569:B 5.70419e-05
20 *75:10 *95:12 3.22879e-05
21 *75:10 *95:36 8.62876e-05
22 *89:36 *95:6 0.000126847
23 *89:36 *95:10 5.90675e-06
24 *89:42 *95:6 2.25419e-05
25 *89:42 *95:10 2.4754e-05
*RES
1 *528:Y *95:6 26.48 
2 *95:6 *95:10 6.235 
3 *95:10 *95:12 1.09786 
4 *95:12 *569:B 25.0714 
5 *95:12 *529:B 23.4971 
6 *95:10 *95:36 32.0507 
7 *95:36 *530:A2 23 
8 *95:6 *568:B 23 
*END

*D_NET *96 0.000412403
*CONN
*I *570:A1 I *D sky130_fd_sc_hd__a21oi_1
*I *529:X O *D sky130_fd_sc_hd__or2_1
*CAP
1 *570:A1 0
2 *529:X 0.000155675
3 *96:10 0.000155675
4 *51:8 *96:10 4.08641e-05
5 *75:10 *96:10 0
6 *89:42 *96:10 0
7 *95:10 *96:10 3.22879e-05
8 *95:36 *96:10 2.79004e-05
*RES
1 *529:X *96:10 40.8793 
2 *96:10 *570:A1 38 
*END

*D_NET *97 0.000852748
*CONN
*I *534:A1 I *D sky130_fd_sc_hd__o21a_1
*I *530:X O *D sky130_fd_sc_hd__o21a_1
*CAP
1 *534:A1 0
2 *530:X 0.000241099
3 *97:10 0.000241099
4 *97:10 *534:A2 2.26497e-05
5 *97:10 *103:34 0
6 *97:10 *112:25 0.000347901
*RES
1 *530:X *97:10 43.3443 
2 *97:10 *534:A1 38 
*END

*D_NET *98 0.00205628
*CONN
*I *559:A2 I *D sky130_fd_sc_hd__o211a_1
*I *543:B_N I *D sky130_fd_sc_hd__and4bb_1
*I *531:X O *D sky130_fd_sc_hd__and2b_1
*CAP
1 *559:A2 0.00012628
2 *543:B_N 0.000198529
3 *531:X 0.000105745
4 *98:10 0.000324809
5 *98:8 0.000105745
6 *543:B_N *536:B_N 2.02872e-05
7 *543:B_N *536:C 9.91798e-05
8 *543:B_N *536:D 7.88926e-05
9 *559:A2 *536:A_N 8.06804e-06
10 *559:A2 *536:B_N 2.3853e-05
11 *98:8 *541:B 0.000159018
12 *98:8 *114:33 5.63989e-05
13 *543:C *543:B_N 0.000139357
14 *559:A1 *559:A2 0.000133309
15 *559:B1 *543:B_N 0.000384359
16 *559:B1 *559:A2 8.23099e-05
17 *78:23 *98:8 1.01436e-05
*RES
1 *531:X *98:8 40.2579 
2 *98:8 *98:10 15 
3 *98:10 *543:B_N 29.3593 
4 *98:10 *559:A2 26.045 
*END

*D_NET *99 0.00507256
*CONN
*I *550:A I *D sky130_fd_sc_hd__nand2_1
*I *553:A1 I *D sky130_fd_sc_hd__a21o_1
*I *555:B I *D sky130_fd_sc_hd__nand3_1
*I *535:A2 I *D sky130_fd_sc_hd__a21o_1
*I *538:C I *D sky130_fd_sc_hd__nand3_1
*I *532:X O *D sky130_fd_sc_hd__and3b_1
*CAP
1 *550:A 6.30908e-05
2 *553:A1 0.000251597
3 *555:B 0.000273652
4 *535:A2 0
5 *538:C 0
6 *532:X 0.000106976
7 *99:30 0.000724113
8 *99:19 0.000528899
9 *99:15 0.000502382
10 *99:8 0.000216233
11 *550:A *111:16 0.000347796
12 *550:A *114:62 0.000166527
13 *553:A1 *119:44 0.000313255
14 *555:B *124:24 1.21972e-05
15 *99:8 *114:62 0.000221084
16 *99:8 *129:12 0.000228833
17 *99:15 *111:16 0.000230604
18 *99:15 *114:62 0.000130353
19 *99:15 *129:12 5.50106e-05
20 *99:19 *101:10 0
21 *99:19 *115:52 4.68153e-05
22 *99:19 *120:39 0
23 *99:19 *122:12 4.21594e-06
24 *99:30 *119:44 3.33144e-05
25 *99:30 *122:12 2.92643e-05
26 *550:B *99:19 0
27 *556:A1 *555:B 1.41129e-05
28 *556:A2 *555:B 9.67842e-05
29 *556:A2 *99:30 0.000144171
30 *556:A3 *555:B 0.000110982
31 *45:8 *99:30 1.14452e-05
32 *63:10 *99:19 0
33 *78:68 *555:B 0
34 *90:59 *99:19 0
35 *90:67 *553:A1 1.56762e-05
36 *90:67 *555:B 1.24376e-05
37 *90:67 *99:19 6.65664e-05
38 *90:67 *99:30 0.000114174
*RES
1 *532:X *99:8 26.3764 
2 *99:8 *538:C 23 
3 *99:8 *99:15 3.95643 
4 *99:15 *99:19 20.7793 
5 *99:19 *535:A2 38 
6 *99:19 *99:30 19.0186 
7 *99:30 *555:B 28.1164 
8 *99:30 *553:A1 26.9564 
9 *99:15 *550:A 26.9564 
*END

*D_NET *100 0.00166116
*CONN
*I *534:A2 I *D sky130_fd_sc_hd__o21a_1
*I *533:X O *D sky130_fd_sc_hd__o2111a_1
*CAP
1 *534:A2 2.11246e-05
2 *533:X 0.000774782
3 *100:12 0.000795906
4 *534:A2 *103:34 0
5 *534:A2 *103:43 0
6 *100:12 *543:A_N 2.33476e-05
7 *100:12 *107:31 2.33476e-05
8 *100:12 *112:31 0
9 *97:10 *534:A2 2.26497e-05
*RES
1 *533:X *100:12 47.8368 
2 *100:12 *534:A2 46.3211 
*END

*D_NET *101 0.00158092
*CONN
*I *539:A1 I *D sky130_fd_sc_hd__a31oi_1
*I *535:X O *D sky130_fd_sc_hd__a21o_1
*CAP
1 *539:A1 0
2 *535:X 0.000503574
3 *101:10 0.000503574
4 *101:10 *112:39 0.00026079
5 *101:10 *115:52 2.05503e-05
6 *101:10 *120:39 7.88926e-05
7 *90:10 *101:10 1.63599e-05
8 *90:19 *101:10 5.08422e-06
9 *90:59 *101:10 0.000192091
10 *99:19 *101:10 0
*RES
1 *535:X *101:10 47.4664 
2 *101:10 *539:A1 38 
*END

*D_NET *102 0.00324645
*CONN
*I *594:A I *D sky130_fd_sc_hd__clkbuf_16
*I *593:A I *D sky130_fd_sc_hd__clkbuf_16
*I *592:X O *D sky130_fd_sc_hd__clkbuf_16
*CAP
1 *594:A 0.000303195
2 *593:A 0.000676634
3 *592:X 2.34823e-05
4 *102:6 0.00100331
5 *593:A *546:B 4.79641e-05
6 *593:A *132:77 5.50049e-05
7 *552:B1 *594:A 5.50106e-05
8 *44:10 *594:A 0.000268873
9 *60:8 *593:A 9.75779e-05
10 *62:14 *593:A 0.000310861
11 *62:14 *594:A 4.95081e-05
12 *90:59 *593:A 5.50106e-05
13 *90:59 *594:A 0.000300018
*RES
1 *592:X *102:6 23.4971 
2 *102:6 *593:A 35.0557 
3 *102:6 *594:A 30.2914 
*END

*D_NET *103 0.0148628
*CONN
*I *587:CLK I *D sky130_fd_sc_hd__dfxtp_1
*I *586:CLK I *D sky130_fd_sc_hd__dfxtp_1
*I *595:A I *D sky130_fd_sc_hd__clkinvlp_4
*I *588:CLK I *D sky130_fd_sc_hd__dfxtp_1
*I *589:CLK I *D sky130_fd_sc_hd__dfxtp_1
*I *590:CLK I *D sky130_fd_sc_hd__dfxtp_2
*I *591:CLK I *D sky130_fd_sc_hd__dfxtp_1
*I *583:CLK I *D sky130_fd_sc_hd__dfxtp_1
*I *582:CLK I *D sky130_fd_sc_hd__dfxtp_1
*I *580:CLK I *D sky130_fd_sc_hd__dfxtp_1
*I *593:X O *D sky130_fd_sc_hd__clkbuf_16
*CAP
1 *587:CLK 1.90448e-05
2 *586:CLK 0.000248312
3 *595:A 0.000119254
4 *588:CLK 0
5 *589:CLK 0
6 *590:CLK 2.34823e-05
7 *591:CLK 2.34823e-05
8 *583:CLK 0.000379683
9 *582:CLK 0
10 *580:CLK 0
11 *593:X 0
12 *103:106 0.000806472
13 *103:88 0.000234991
14 *103:43 0.000703795
15 *103:34 0.000961658
16 *103:28 0.00102907
17 *103:26 0.00104141
18 *103:18 0.000971386
19 *103:12 0.000782102
20 *103:8 0.000459728
21 *103:6 0.00065398
22 *583:CLK *115:10 0.000252978
23 *586:CLK *115:20 5.50049e-05
24 *586:CLK *117:14 0.000384793
25 *587:CLK *117:14 1.94812e-05
26 *595:A *108:26 5.3304e-05
27 *595:A *114:62 8.46337e-05
28 *103:8 *557:A1 0.000181013
29 *103:12 *524:A 9.2995e-05
30 *103:12 *557:A1 3.47781e-05
31 *103:12 *105:28 0
32 *103:12 *108:18 0.000338144
33 *103:18 *599:A 0.000140477
34 *103:18 *135:20 1.32314e-05
35 *103:18 *135:24 0.000524045
36 *103:26 *107:10 0.000141052
37 *103:26 *108:14 0.000114443
38 *103:26 *129:36 4.66047e-05
39 *103:26 *133:12 7.21237e-05
40 *103:26 *133:20 0.000663653
41 *103:28 *108:8 9.58714e-05
42 *103:28 *108:14 1.39431e-05
43 *103:88 *524:A 0
44 *103:88 *599:A 0.000355029
45 *103:88 *108:18 0
46 *103:88 *129:98 0
47 *103:88 *135:20 0.000343493
48 *103:106 *557:A1 0.000256776
49 *103:106 *557:B1 0
50 *534:A2 *103:34 0
51 *534:A2 *103:43 0
52 *558:B *103:106 0
53 *567:A *103:26 0
54 *583:D *583:CLK 0.000129006
55 *586:D *586:CLK 5.92579e-05
56 *589:D *103:18 0.000124708
57 *590:D *103:26 8.90341e-05
58 *591:D *103:28 0.000580952
59 *43:22 *586:CLK 0.000709855
60 *43:22 *587:CLK 2.32101e-05
61 *48:8 *103:88 0.000113153
62 *56:40 *103:106 0
63 *73:10 *103:26 0.000164873
64 *89:12 *103:88 0
65 *89:22 *103:18 2.40076e-05
66 *90:27 *103:12 0
67 *90:46 *103:8 0
68 *90:46 *103:12 0
69 *90:46 *103:106 0
70 *93:14 *103:18 0.000109064
71 *97:10 *103:34 0
*RES
1 *593:X *103:6 38 
2 *103:6 *103:8 2.61 
3 *103:8 *103:12 20.075 
4 *103:12 *103:18 10.3157 
5 *103:18 *103:26 45.7429 
6 *103:26 *103:28 8.72071 
7 *103:28 *103:34 26.8071 
8 *103:34 *580:CLK 38 
9 *103:34 *103:43 5.77929 
10 *103:43 *582:CLK 38 
11 *103:43 *583:CLK 47.3007 
12 *103:28 *591:CLK 23.4971 
13 *103:26 *590:CLK 23.4971 
14 *103:18 *589:CLK 23 
15 *103:12 *103:88 36.9186 
16 *103:88 *588:CLK 23 
17 *103:8 *595:A 40.5271 
18 *103:6 *103:106 24.3007 
19 *103:106 *586:CLK 34.5793 
20 *103:106 *587:CLK 23.6214 
*END

*D_NET *104 0.0153101
*CONN
*I *584:CLK I *D sky130_fd_sc_hd__dfxtp_1
*I *579:CLK I *D sky130_fd_sc_hd__dfxtp_1
*I *502:A I *D sky130_fd_sc_hd__inv_2
*I *585:CLK I *D sky130_fd_sc_hd__dfxtp_1
*I *574:CLK I *D sky130_fd_sc_hd__dfxtp_1
*I *578:CLK I *D sky130_fd_sc_hd__dfxtp_1
*I *577:CLK I *D sky130_fd_sc_hd__dfxtp_1
*I *576:CLK I *D sky130_fd_sc_hd__dfxtp_1
*I *572:CLK I *D sky130_fd_sc_hd__dfxtp_1
*I *575:CLK I *D sky130_fd_sc_hd__dfxtp_1
*I *573:CLK I *D sky130_fd_sc_hd__dfxtp_1
*I *581:CLK I *D sky130_fd_sc_hd__dfxtp_1
*I *594:X O *D sky130_fd_sc_hd__clkbuf_16
*CAP
1 *584:CLK 0
2 *579:CLK 0.000460996
3 *502:A 0.000146065
4 *585:CLK 0
5 *574:CLK 0
6 *578:CLK 0.000132967
7 *577:CLK 5.94169e-05
8 *576:CLK 0
9 *572:CLK 2.34823e-05
10 *575:CLK 0
11 *573:CLK 2.34823e-05
12 *581:CLK 0.000462574
13 *594:X 0
14 *104:112 0.000354345
15 *104:102 0.00050041
16 *104:100 0.000776266
17 *104:96 0.000440108
18 *104:69 0.000515173
19 *104:60 0.000723165
20 *104:56 0.00101212
21 *104:43 0.000671919
22 *104:36 0.000129494
23 *104:30 0.000587892
24 *104:12 0.000717652
25 *104:10 0.00122705
26 *104:4 0.000698589
27 *502:A *493:A 0.00017761
28 *502:A *551:B1 1.22822e-05
29 *502:A *128:16 0.000208647
30 *502:A *128:31 0.000184527
31 *577:CLK *128:31 2.98648e-05
32 *578:CLK *117:51 0
33 *578:CLK *126:16 7.10099e-05
34 *579:CLK *114:68 0
35 *579:CLK *115:62 9.58714e-05
36 *579:CLK *117:39 3.35836e-05
37 *579:CLK *124:12 0.000163361
38 *579:CLK *139:16 0.000163955
39 *581:CLK *113:10 5.67058e-05
40 *104:10 *503:B 0
41 *104:10 *113:10 0
42 *104:10 *113:23 0
43 *104:10 *114:68 0.000114092
44 *104:10 *136:53 0
45 *104:10 *136:118 0
46 *104:12 *113:10 1.32314e-05
47 *104:56 *506:A 0.000187129
48 *104:56 *131:27 0.000136774
49 *104:60 *114:79 0.000434083
50 *104:60 *130:14 0
51 *104:60 *130:25 0
52 *104:60 *130:36 0
53 *104:69 *114:79 5.33597e-05
54 *104:69 *116:46 6.48142e-05
55 *104:69 *126:16 7.91493e-05
56 *104:69 *130:36 0
57 *104:69 *136:94 0
58 *104:100 *503:B 0
59 *104:100 *521:C1 6.7177e-06
60 *104:100 *114:68 0
61 *104:100 *115:62 3.72639e-05
62 *104:100 *115:77 0
63 *104:100 *124:12 0.000161121
64 *104:112 *493:A 0.000613273
65 *104:112 *113:23 0.000101657
66 *104:112 *117:14 0.000143059
67 *104:112 *128:16 0.000614968
68 *104:112 *139:16 0.000129198
69 *508:B *104:36 5.61414e-05
70 *517:A2 *577:CLK 9.67842e-05
71 *519:A2 *578:CLK 0.000104133
72 *519:A2 *104:69 1.12487e-05
73 *572:D *104:56 1.64354e-05
74 *573:D *104:12 1.64354e-05
75 *577:D *577:CLK 2.93845e-05
76 *581:D *581:CLK 8.90341e-05
77 *585:D *104:112 0.000129006
78 *32:8 *104:36 0
79 *33:8 *104:10 0
80 *34:10 *104:60 4.83778e-05
81 *35:8 *104:36 4.21594e-06
82 *36:10 *104:60 4.21594e-06
83 *36:10 *104:69 5.86165e-05
84 *39:10 *579:CLK 5.50106e-05
85 *44:10 *104:96 0.000103637
86 *79:14 *104:36 4.21594e-06
87 *80:94 *104:69 5.86473e-05
88 *80:107 *104:69 0.000171951
89 *81:10 *104:56 0.000404502
90 *88:10 *502:A 9.76358e-05
91 *92:22 *104:112 0
*RES
1 *594:X *104:4 23 
2 *104:4 *104:10 40.005 
3 *104:10 *104:12 3.95643 
4 *104:12 *581:CLK 31.265 
5 *104:12 *573:CLK 23.4971 
6 *104:10 *104:30 6.815 
7 *104:30 *104:36 32.2579 
8 *104:36 *575:CLK 23 
9 *104:30 *104:43 0.621429 
10 *104:43 *572:CLK 23.4971 
11 *104:43 *104:56 14.4793 
12 *104:56 *104:60 23.5964 
13 *104:60 *576:CLK 38 
14 *104:60 *104:69 8.59643 
15 *104:69 *577:CLK 39.5743 
16 *104:69 *578:CLK 40.9621 
17 *104:56 *574:CLK 23 
18 *104:4 *104:96 2.9 
19 *104:96 *104:100 20.7793 
20 *104:100 *104:102 15 
21 *104:102 *104:112 43.7336 
22 *104:112 *585:CLK 23 
23 *104:102 *502:A 27.93 
24 *104:100 *579:CLK 46.6379 
25 *104:96 *584:CLK 23 
*END

*D_NET *105 0.00416389
*CONN
*I *532:A_N I *D sky130_fd_sc_hd__and3b_1
*I *600:A I *D sky130_fd_sc_hd__buf_2
*I *504:C I *D sky130_fd_sc_hd__nor4b_1
*I *524:B I *D sky130_fd_sc_hd__nand2_1
*I *588:Q O *D sky130_fd_sc_hd__dfxtp_1
*CAP
1 *532:A_N 0.000136591
2 *600:A 0
3 *504:C 0
4 *524:B 0
5 *588:Q 0.000262107
6 *105:28 0.000543033
7 *105:14 0.000604469
8 *105:12 6.1436e-05
9 *105:10 0.000398698
10 *532:A_N *525:A 2.24973e-05
11 *532:A_N *601:A 1.01436e-05
12 *532:A_N *114:62 2.64616e-05
13 *532:A_N *129:22 4.76556e-05
14 *532:A_N *134:12 2.2539e-05
15 *532:A_N *136:29 5.3304e-05
16 *105:10 *129:22 9.10312e-05
17 *105:10 *134:12 0.000155451
18 *105:14 *504:B 9.41704e-05
19 *105:14 *134:27 4.08664e-05
20 *105:28 *524:A 2.76611e-06
21 *105:28 *107:68 7.38547e-05
22 *105:28 *107:91 4.77164e-06
23 *105:28 *129:22 6.85548e-05
24 *11:9 *532:A_N 0.000182187
25 *11:9 *105:10 0.000352526
26 *53:12 *105:14 3.60444e-05
27 *79:8 *105:14 5.3304e-05
28 *90:27 *105:28 0.000770635
29 *90:46 *105:28 4.87927e-05
30 *103:12 *105:28 0
*RES
1 *588:Q *105:10 43.6964 
2 *105:10 *105:12 15 
3 *105:12 *105:14 1.57429 
4 *105:14 *105:28 49.4806 
5 *105:28 *524:B 23 
6 *105:14 *504:C 23 
7 *105:12 *600:A 23 
8 *105:10 *532:A_N 41.2314 
*END

*D_NET *106 0.00467974
*CONN
*I *599:A I *D sky130_fd_sc_hd__buf_1
*I *598:A I *D sky130_fd_sc_hd__buf_2
*I *589:Q O *D sky130_fd_sc_hd__dfxtp_1
*CAP
1 *599:A 0.000729387
2 *598:A 0
3 *589:Q 0
4 *106:12 0.000249769
5 *106:4 0.000979156
6 *599:A *505:C 4.05745e-05
7 *599:A *505:D_N 0.000139352
8 *599:A *107:91 0.000182826
9 *599:A *134:6 2.80512e-05
10 *599:A *135:20 0.000155678
11 *599:A *136:29 0.000143655
12 *106:12 *537:C 0.000227208
13 *106:12 *108:18 0
14 *106:12 *133:116 1.22822e-05
15 *106:12 *133:124 0
16 *522:B *599:A 0.000426179
17 *80:15 *599:A 0.000143655
18 *90:31 *106:12 0.000354116
19 *91:12 *599:A 0.000141954
20 *91:23 *599:A 0.000172996
21 *93:6 *106:12 6.17437e-06
22 *93:14 *106:12 0
23 *93:36 *106:12 5.12254e-05
24 *103:18 *599:A 0.000140477
25 *103:88 *599:A 0.000355029
*RES
1 *589:Q *106:4 23 
2 *106:4 *106:12 36.2143 
3 *106:12 *598:A 23 
4 *106:4 *599:A 43.2171 
*END

*D_NET *107 0.0129657
*CONN
*I *554:B I *D sky130_fd_sc_hd__or4_1
*I *546:B I *D sky130_fd_sc_hd__nor2_2
*I *504:A I *D sky130_fd_sc_hd__nor4b_1
*I *505:A I *D sky130_fd_sc_hd__or4b_4
*I *491:A I *D sky130_fd_sc_hd__inv_2
*I *557:A2 I *D sky130_fd_sc_hd__o41a_1
*I *527:B I *D sky130_fd_sc_hd__and2b_1
*I *543:D I *D sky130_fd_sc_hd__and4bb_1
*I *528:B I *D sky130_fd_sc_hd__nand4_1
*I *590:Q O *D sky130_fd_sc_hd__dfxtp_2
*CAP
1 *554:B 0.000332576
2 *546:B 0.000256557
3 *504:A 0
4 *505:A 0
5 *491:A 0
6 *557:A2 0
7 *527:B 0
8 *543:D 0
9 *528:B 0
10 *590:Q 0.000139121
11 *107:91 0.000291242
12 *107:81 0.000645087
13 *107:68 0.000594143
14 *107:64 0.000705156
15 *107:60 0.000936932
16 *107:53 0.00105377
17 *107:38 0.00070651
18 *107:31 0.000540152
19 *107:21 0.000928277
20 *107:10 0.000478449
21 *546:B *132:77 0.000395895
22 *554:B *554:A 7.44257e-05
23 *554:B *554:C 1.09903e-05
24 *554:B *115:36 7.43025e-06
25 *107:10 *129:36 8.85189e-05
26 *107:10 *133:20 8.62876e-05
27 *107:21 *528:D 0
28 *107:21 *129:36 5.01986e-05
29 *107:21 *129:46 6.50237e-05
30 *107:21 *132:49 0.000117862
31 *107:21 *133:20 1.14452e-05
32 *107:21 *135:64 0
33 *107:31 *543:A_N 8.71376e-05
34 *107:31 *109:18 0.000118483
35 *107:31 *132:60 9.67842e-05
36 *107:38 *132:60 8.60475e-05
37 *107:53 *492:A 5.41385e-05
38 *107:53 *531:A_N 2.17571e-05
39 *107:53 *536:A_N 2.82779e-05
40 *107:53 *557:B1 0.000143655
41 *107:53 *109:18 7.42621e-05
42 *107:53 *114:52 0.000136486
43 *107:53 *115:36 0.000174133
44 *107:53 *132:60 0.000438604
45 *107:53 *133:91 1.43747e-05
46 *107:53 *135:99 0.00011076
47 *107:60 *557:A1 0.000173442
48 *107:60 *557:B1 4.17736e-05
49 *107:60 *115:36 6.28217e-05
50 *107:68 *108:26 5.64944e-05
51 *107:81 *504:B 3.7681e-05
52 *107:81 *504:D_N 8.11143e-05
53 *107:81 *537:A 5.50049e-05
54 *107:81 *537:C 0.000267167
55 *107:91 *505:C 9.67842e-05
56 *107:91 *129:22 5.97198e-05
57 *107:91 *136:12 5.75298e-05
58 *543:C *107:31 4.93223e-05
59 *554:D *554:B 5.97178e-05
60 *554:D *107:64 0
61 *593:A *546:B 4.79641e-05
62 *599:A *107:91 0.000182826
63 *53:12 *107:81 9.88574e-06
64 *57:8 *107:31 0.000188341
65 *70:10 *107:53 9.75779e-05
66 *77:16 *107:53 0.000435854
67 *89:36 *107:21 2.472e-05
68 *89:42 *107:31 0
69 *89:83 *107:64 0
70 *90:46 *554:B 0.000171296
71 *90:46 *107:60 9.67842e-05
72 *90:46 *107:64 0.000107218
73 *90:46 *107:68 0.000160643
74 *91:32 *107:68 0
75 *100:12 *107:31 2.33476e-05
76 *103:26 *107:10 0.000141052
77 *105:28 *107:68 7.38547e-05
78 *105:28 *107:91 4.77164e-06
*RES
1 *590:Q *107:10 40.7757 
2 *107:10 *528:B 38 
3 *107:10 *107:21 22.1879 
4 *107:21 *107:31 39.9014 
5 *107:31 *543:D 23 
6 *107:21 *107:38 1.09786 
7 *107:38 *527:B 23 
8 *107:38 *107:53 47.5036 
9 *107:53 *557:A2 23 
10 *107:53 *107:60 7.76786 
11 *107:60 *107:64 18.6664 
12 *107:64 *107:68 20.4271 
13 *107:68 *491:A 23 
14 *107:68 *107:81 7.47786 
15 *107:81 *107:91 35.6343 
16 *107:91 *505:A 23 
17 *107:81 *504:A 23 
18 *107:64 *546:B 43.8829 
19 *107:60 *554:B 29.3593 
*END

*D_NET *108 0.00985048
*CONN
*I *597:A I *D sky130_fd_sc_hd__clkbuf_2
*I *557:A1 I *D sky130_fd_sc_hd__o41a_1
*I *504:D_N I *D sky130_fd_sc_hd__nor4b_1
*I *591:Q O *D sky130_fd_sc_hd__dfxtp_1
*CAP
1 *597:A 9.72977e-05
2 *557:A1 0.000424513
3 *504:D_N 0.000214187
4 *591:Q 8.0784e-05
5 *108:26 0.000708124
6 *108:18 0.0014073
7 *108:14 0.00203191
8 *108:8 0.00172114
9 *504:D_N *537:A 2.93747e-05
10 *504:D_N *537:C 0.000181125
11 *557:A1 *115:36 0.000173442
12 *557:A1 *133:124 0
13 *597:A *132:14 5.3304e-05
14 *108:14 *565:A2 1.76557e-05
15 *108:14 *129:24 6.54702e-05
16 *108:14 *129:36 0.000552123
17 *108:18 *524:A 1.34739e-05
18 *108:18 *129:98 2.96369e-05
19 *108:18 *133:124 0
20 *108:26 *524:A 0
21 *108:26 *114:62 9.07079e-05
22 *537:B *504:D_N 0.000141954
23 *549:C_N *557:A1 0
24 *558:B *557:A1 0
25 *590:D *108:14 3.68467e-05
26 *595:A *108:26 5.3304e-05
27 *50:10 *597:A 4.08641e-05
28 *50:10 *108:14 2.96051e-05
29 *51:8 *597:A 0.000101708
30 *51:8 *108:14 5.94125e-05
31 *53:12 *504:D_N 9.84851e-05
32 *89:42 *597:A 1.01436e-05
33 *91:23 *108:26 1.62061e-05
34 *91:32 *108:26 2.43703e-05
35 *103:8 *557:A1 0.000181013
36 *103:12 *557:A1 3.47781e-05
37 *103:12 *108:18 0.000338144
38 *103:26 *108:14 0.000114443
39 *103:28 *108:8 9.58714e-05
40 *103:28 *108:14 1.39431e-05
41 *103:88 *108:18 0
42 *103:106 *557:A1 0.000256776
43 *106:12 *108:18 0
44 *107:60 *557:A1 0.000173442
45 *107:68 *108:26 5.64944e-05
46 *107:81 *504:D_N 8.11143e-05
*RES
1 *591:Q *108:8 39.0979 
2 *108:8 *108:14 39.9193 
3 *108:14 *108:18 23.5964 
4 *108:18 *108:26 37.0429 
5 *108:26 *504:D_N 43.4064 
6 *108:18 *557:A1 47.9636 
7 *108:8 *597:A 40.175 
*END

*D_NET *109 0.0102369
*CONN
*I *543:A_N I *D sky130_fd_sc_hd__and4bb_1
*I *549:A I *D sky130_fd_sc_hd__or3b_1
*I *501:A I *D sky130_fd_sc_hd__inv_2
*I *610:X O *D sky130_fd_sc_hd__buf_1
*CAP
1 *543:A_N 0.000208683
2 *549:A 0.00015577
3 *501:A 0
4 *610:X 0.000373074
5 *109:24 0.000182311
6 *109:18 0.000923769
7 *109:12 0.00296966
8 *109:8 0.00254836
9 *543:A_N *541:C_N 5.20202e-05
10 *543:A_N *129:46 4.78793e-05
11 *543:A_N *129:55 5.97612e-05
12 *549:A *114:62 0.000397596
13 *109:12 *112:25 6.52793e-05
14 *109:18 *114:62 6.82514e-05
15 *109:18 *129:46 7.91596e-05
16 *109:18 *132:60 0.000566283
17 *109:24 *133:124 0
18 *109:24 *135:99 3.72639e-05
19 *534:B1 *109:12 0.000571488
20 *544:A2 *109:12 0.000143655
21 *544:A3 *109:12 1.56762e-05
22 *549:C_N *549:A 0.000138444
23 *580:D *109:12 0.000100703
24 *55:14 *109:12 1.33461e-05
25 *57:8 *543:A_N 3.64189e-05
26 *77:8 *109:24 0.000166522
27 *77:16 *109:18 1.22822e-05
28 *89:42 *109:18 0
29 *93:36 *109:24 0
30 *100:12 *543:A_N 2.33476e-05
31 *107:31 *543:A_N 8.71376e-05
32 *107:31 *109:18 0.000118483
33 *107:53 *109:18 7.42621e-05
*RES
1 *610:X *109:8 29.5975 
2 *109:8 *109:12 45.8746 
3 *109:12 *109:18 28.3607 
4 *109:18 *109:24 33.3143 
5 *109:24 *501:A 23 
6 *109:18 *549:A 27.93 
7 *109:12 *543:A_N 42.3707 
*END

*D_NET *110 0.00599703
*CONN
*I *613:A I *D sky130_fd_sc_hd__buf_2
*I *520:A I *D sky130_fd_sc_hd__or2_1
*I *579:Q O *D sky130_fd_sc_hd__dfxtp_1
*CAP
1 *613:A 0
2 *520:A 0
3 *579:Q 0
4 *110:37 0.0012139
5 *110:12 0.000176738
6 *110:4 0.00139064
7 *110:12 *116:10 0.000163352
8 *110:12 *116:21 5.33597e-05
9 *110:12 *117:45 3.80641e-05
10 *110:12 *128:31 0.000185428
11 *110:12 *140:8 0
12 *110:37 *637:A 0.000704525
13 *110:37 *118:53 0.000143655
14 *110:37 *125:12 2.20111e-05
15 *110:37 *125:29 0.000166237
16 *110:37 *126:6 5.50049e-05
17 *110:37 *126:39 0.000879726
18 *110:37 *127:10 2.47702e-05
19 *110:37 *151:10 0.000576699
20 *578:D *110:37 0.000147908
21 *79:44 *110:12 5.50106e-05
*RES
1 *579:Q *110:4 23 
2 *110:4 *110:12 35.0129 
3 *110:12 *520:A 23 
4 *110:4 *110:37 32.625 
5 *110:37 *613:A 23 
*END

*D_NET *111 0.00947413
*CONN
*I *614:A I *D sky130_fd_sc_hd__buf_2
*I *602:A I *D sky130_fd_sc_hd__dlygate4sd3_1
*I *596:A I *D sky130_fd_sc_hd__clkbuf_2
*I *571:Q O *D sky130_fd_sc_hd__dfxtp_1
*CAP
1 *614:A 0
2 *602:A 0
3 *596:A 0
4 *571:Q 4.9171e-05
5 *111:44 0.000488181
6 *111:38 0.00191975
7 *111:16 0.00138967
8 *111:10 0.00147444
9 *111:8 0.00156551
10 *111:8 *126:22 4.37586e-06
11 *111:10 *138:8 0
12 *111:16 *114:62 0.000271672
13 *111:16 *114:79 0.000451358
14 *111:38 *126:16 0.00010018
15 *111:38 *126:22 0.000475261
16 *111:38 *138:8 0
17 *111:44 *127:10 0
18 *111:44 *128:37 0
19 adc_out[5] *111:44 0
20 adc_out[6] *111:44 0
21 *550:A *111:16 0.000347796
22 *550:B *111:16 5.67058e-05
23 *79:44 *111:10 0.000169665
24 *79:44 *111:16 0.000246767
25 *79:44 *111:38 0.000118174
26 *86:10 *111:38 0.000114856
27 *99:15 *111:16 0.000230604
*RES
1 *571:Q *111:8 38.6214 
2 *111:8 *111:10 2.25786 
3 *111:10 *111:16 45.6157 
4 *111:16 *596:A 23 
5 *111:10 *602:A 38 
6 *111:8 *111:38 44.4971 
7 *111:38 *111:44 38.5964 
8 *111:44 *614:A 23 
*END

*D_NET *112 0.0206057
*CONN
*I *530:B1 I *D sky130_fd_sc_hd__o21a_1
*I *507:A1 I *D sky130_fd_sc_hd__o211a_1
*I *500:A I *D sky130_fd_sc_hd__inv_2
*I *615:A I *D sky130_fd_sc_hd__buf_2
*I *580:Q O *D sky130_fd_sc_hd__dfxtp_1
*CAP
1 *530:B1 0
2 *507:A1 0
3 *500:A 0
4 *615:A 0.000780461
5 *580:Q 0
6 *112:52 0.00181064
7 *112:39 0.000683327
8 *112:31 0.00515339
9 *112:25 0.00379434
10 *112:10 0.00134592
11 *112:4 0.00170038
12 *615:A *113:25 0.000375551
13 *112:39 *115:52 2.24608e-05
14 *112:39 *119:23 0.000141954
15 *112:39 *120:39 0
16 *112:39 *122:12 0
17 *112:39 *124:24 0
18 *112:39 *134:27 0
19 *534:B1 *112:25 4.85876e-05
20 *580:D *112:25 0.000343776
21 *30:15 *615:A 4.37033e-05
22 *54:8 *112:39 0.000135159
23 *58:8 *112:25 0
24 *60:57 *112:39 0.000141954
25 *60:107 *112:39 0
26 *67:12 *112:39 3.21239e-05
27 *75:10 *112:25 1.14452e-05
28 *75:10 *112:31 5.05059e-05
29 *76:14 *112:31 0.000596706
30 *78:74 *112:39 0.000648054
31 *80:39 *112:52 0
32 *80:73 *112:52 0.000406017
33 *80:81 *112:52 4.51887e-05
34 *89:42 *112:25 0
35 *90:27 *112:31 0.00139569
36 *90:27 *112:52 0.000212122
37 *94:51 *112:39 1.22906e-05
38 *97:10 *112:25 0.000347901
39 *100:12 *112:31 0
40 *101:10 *112:39 0.00026079
41 *109:12 *112:25 6.52793e-05
*RES
1 *580:Q *112:4 23 
2 *112:4 *112:10 40.3571 
3 *112:10 *615:A 39.8407 
4 *112:4 *112:25 34.0157 
5 *112:25 *112:31 16.5431 
6 *112:31 *112:39 38.9811 
7 *112:39 *500:A 23 
8 *112:31 *112:52 28.6236 
9 *112:52 *507:A1 23 
10 *112:25 *530:B1 38 
*END

*D_NET *113 0.0137151
*CONN
*I *499:A I *D sky130_fd_sc_hd__inv_2
*I *616:A I *D sky130_fd_sc_hd__buf_2
*I *509:A1 I *D sky130_fd_sc_hd__o211a_1
*I *581:Q O *D sky130_fd_sc_hd__dfxtp_1
*CAP
1 *499:A 2.34823e-05
2 *616:A 2.34823e-05
3 *509:A1 0
4 *581:Q 0.00013404
5 *113:25 0.00327798
6 *113:23 0.0048593
7 *113:10 0.00171536
8 *113:23 *114:68 0
9 *113:23 *118:36 0.00036394
10 *113:25 *618:A 0.000272377
11 *113:25 *619:A 0.000418374
12 *113:25 *114:14 5.56279e-05
13 *113:25 *118:25 0.000272383
14 *113:25 *118:34 0.000663648
15 *113:25 *118:36 0.000847019
16 *550:B *113:23 0
17 *581:CLK *113:10 5.67058e-05
18 *615:A *113:25 0.000375551
19 *16:8 *113:25 0.000146197
20 *33:8 *113:10 2.5415e-05
21 *82:10 *113:10 6.93553e-05
22 *104:10 *113:10 0
23 *104:10 *113:23 0
24 *104:12 *113:10 1.32314e-05
25 *104:112 *113:23 0.000101657
*RES
1 *581:Q *113:10 40.5271 
2 *113:10 *509:A1 38 
3 *113:10 *113:23 42.8607 
4 *113:23 *113:25 69.2271 
5 *113:25 *616:A 23.4971 
6 *113:23 *499:A 23.4971 
*END

*D_NET *114 0.0205179
*CONN
*I *511:A1 I *D sky130_fd_sc_hd__o211a_1
*I *498:A I *D sky130_fd_sc_hd__inv_2
*I *540:B1 I *D sky130_fd_sc_hd__o41a_1
*I *617:A I *D sky130_fd_sc_hd__buf_2
*I *582:Q O *D sky130_fd_sc_hd__dfxtp_1
*CAP
1 *511:A1 0
2 *498:A 0
3 *540:B1 0.000143438
4 *617:A 0
5 *582:Q 0.000205271
6 *114:79 0.00130736
7 *114:68 0.000662235
8 *114:62 0.00398625
9 *114:52 0.00222752
10 *114:35 0.000354294
11 *114:33 0.00185649
12 *114:14 0.000389813
13 *114:6 0.00245158
14 *540:B1 *533:C1 5.3304e-05
15 *540:B1 *540:A3 5.3304e-05
16 *114:33 *536:A_N 0.000245096
17 *114:33 *541:A 5.12254e-05
18 *114:33 *541:B 6.93222e-05
19 *114:33 *115:36 0
20 *114:33 *132:60 6.48142e-05
21 *114:33 *133:91 2.81216e-05
22 *114:52 *132:77 9.62666e-05
23 *114:52 *135:99 0.000136486
24 *114:62 *601:A 4.9662e-05
25 *114:62 *129:12 7.22308e-05
26 *114:62 *129:16 5.61255e-06
27 *114:62 *136:12 3.6485e-05
28 *114:62 *136:29 8.77572e-05
29 *114:68 *503:B 0
30 *114:68 *626:A 0
31 *511:A2 *114:79 0.000166513
32 *532:A_N *114:62 2.64616e-05
33 *533:A2 *540:B1 1.94835e-05
34 *540:A4 *540:B1 6.87053e-05
35 *540:A4 *114:52 1.21972e-05
36 *542:A *114:33 0.000269775
37 *542:B *114:33 3.53115e-05
38 *549:A *114:62 0.000397596
39 *549:C_N *114:62 7.1349e-05
40 *550:A *114:62 0.000166527
41 *550:B *114:62 2.93845e-05
42 *559:A1 *114:33 0.000185351
43 *579:CLK *114:68 0
44 *582:D *114:33 0.000363299
45 *595:A *114:62 8.46337e-05
46 *56:25 *114:33 2.07791e-05
47 *62:6 *114:62 0.00129233
48 *63:10 *114:62 0.000141954
49 *77:16 *114:62 9.5877e-05
50 *78:23 *114:33 2.50928e-05
51 *80:94 *114:79 0.000327912
52 *98:8 *114:33 5.63989e-05
53 *99:8 *114:62 0.000221084
54 *99:15 *114:62 0.000130353
55 *104:10 *114:68 0.000114092
56 *104:60 *114:79 0.000434083
57 *104:69 *114:79 5.33597e-05
58 *104:100 *114:68 0
59 *107:53 *114:52 0.000136486
60 *108:26 *114:62 9.07079e-05
61 *109:18 *114:62 6.82514e-05
62 *111:16 *114:62 0.000271672
63 *111:16 *114:79 0.000451358
64 *113:23 *114:68 0
65 *113:25 *114:14 5.56279e-05
*RES
1 *582:Q *114:6 25.5271 
2 *114:6 *114:14 37.4571 
3 *114:14 *617:A 23 
4 *114:6 *114:33 46.6307 
5 *114:33 *114:35 15 
6 *114:35 *540:B1 25.9 
7 *114:35 *114:52 34.4329 
8 *114:52 *114:62 44.3079 
9 *114:62 *114:68 40.7093 
10 *114:68 *498:A 23 
11 *114:62 *114:79 42.115 
12 *114:79 *511:A1 38 
*END

*D_NET *115 0.0181164
*CONN
*I *618:A I *D sky130_fd_sc_hd__buf_2
*I *513:A1 I *D sky130_fd_sc_hd__o211a_1
*I *497:A I *D sky130_fd_sc_hd__inv_2
*I *583:Q O *D sky130_fd_sc_hd__dfxtp_1
*CAP
1 *618:A 0.000280954
2 *513:A1 0
3 *497:A 0
4 *583:Q 0.000547873
5 *115:85 0.000317217
6 *115:77 0.000730072
7 *115:62 0.000228793
8 *115:54 0.000972106
9 *115:52 0.000931969
10 *115:36 0.00260849
11 *115:20 0.00249157
12 *115:10 0.00131341
13 *115:36 *492:A 9.84851e-05
14 *115:36 *525:A 9.5877e-05
15 *115:36 *525:C 1.95448e-05
16 *115:36 *531:A_N 5.50121e-05
17 *115:36 *541:B 0
18 *115:36 *554:A 7.42621e-05
19 *115:36 *554:C 7.43025e-06
20 *115:36 *557:B1 4.20739e-05
21 *115:36 *120:39 0.000288696
22 *115:36 *133:91 0.00019309
23 *115:36 *133:124 2.93747e-05
24 *115:52 *120:39 8.27026e-05
25 *115:54 *503:A_N 9.67842e-05
26 *115:54 *120:45 0.00134363
27 *115:54 *124:12 0.000479325
28 *115:62 *521:C1 0.000444772
29 *115:62 *626:A 6.16439e-05
30 *115:62 *124:12 0.000314338
31 *115:62 *139:16 9.58714e-05
32 *115:77 *503:A_N 9.41704e-05
33 *115:77 *503:B 0.000111852
34 *115:77 *521:C1 3.47781e-05
35 *115:77 *120:45 4.17736e-05
36 *513:A2 *115:85 8.22421e-06
37 *554:B *115:36 7.43025e-06
38 *554:D *115:36 0.000308039
39 *557:A1 *115:36 0.000173442
40 *559:A1 *115:36 0
41 *579:CLK *115:62 9.58714e-05
42 *583:CLK *115:10 0.000252978
43 *583:D *115:10 0.000170779
44 *583:D *115:20 0.0010984
45 *586:CLK *115:20 5.50049e-05
46 *43:22 *115:20 0.000257538
47 *46:8 *115:36 3.21223e-05
48 *66:12 *115:52 0.000127984
49 *68:8 *115:36 0
50 *79:36 *115:85 1.69977e-05
51 *80:47 *115:85 0.000152086
52 *84:8 *115:85 3.49686e-05
53 *90:27 *115:52 0
54 *90:46 *115:36 0.000102313
55 *90:67 *115:52 4.45839e-05
56 *92:22 *115:52 1.32844e-05
57 *99:19 *115:52 4.68153e-05
58 *101:10 *115:52 2.05503e-05
59 *104:100 *115:62 3.72639e-05
60 *104:100 *115:77 0
61 *107:53 *115:36 0.000174133
62 *107:60 *115:36 6.28217e-05
63 *112:39 *115:52 2.24608e-05
64 *113:25 *618:A 0.000272377
65 *114:33 *115:36 0
*RES
1 *583:Q *115:10 46.6171 
2 *115:10 *115:20 45.5564 
3 *115:20 *115:36 48.4329 
4 *115:36 *115:52 49.9597 
5 *115:52 *115:54 14.9143 
6 *115:54 *115:62 37.2293 
7 *115:62 *497:A 23 
8 *115:54 *115:77 36.1314 
9 *115:77 *115:85 36.8668 
10 *115:85 *513:A1 23 
11 *115:10 *618:A 44.3179 
*END

*D_NET *116 0.0133018
*CONN
*I *515:A1 I *D sky130_fd_sc_hd__o211a_1
*I *619:A I *D sky130_fd_sc_hd__buf_2
*I *496:A I *D sky130_fd_sc_hd__inv_2
*I *584:Q O *D sky130_fd_sc_hd__dfxtp_1
*CAP
1 *515:A1 0
2 *619:A 0.00166311
3 *496:A 0
4 *584:Q 0.00037276
5 *116:46 0.00035911
6 *116:29 0.00187405
7 *116:23 0.00261637
8 *116:21 0.00269588
9 *116:10 0.000771355
10 *116:6 0.00121278
11 *619:A *118:25 0.00010776
12 *619:A *118:34 0.000257564
13 *619:A *118:36 6.17437e-06
14 *116:10 *519:C1 0
15 *116:10 *136:83 0
16 *116:10 *136:94 0
17 *116:21 *519:C1 0
18 *116:23 *120:12 0.000441978
19 *116:46 *515:C1 2.93845e-05
20 dac_in[7] *116:29 0.000112906
21 *26:8 *116:21 0
22 *79:44 *116:10 0
23 *80:94 *116:46 6.48142e-05
24 *80:107 *116:46 1.59094e-05
25 *104:69 *116:46 6.48142e-05
26 *110:12 *116:10 0.000163352
27 *110:12 *116:21 5.33597e-05
28 *113:25 *619:A 0.000418374
*RES
1 *584:Q *116:6 28.8621 
2 *116:6 *116:10 23.9486 
3 *116:10 *496:A 38 
4 *116:10 *116:21 20.4271 
5 *116:21 *116:23 42.5471 
6 *116:23 *116:29 33.3143 
7 *116:29 *619:A 49.5971 
8 *116:6 *116:46 36.235 
9 *116:46 *515:A1 23 
*END

*D_NET *117 0.0128065
*CONN
*I *517:A1 I *D sky130_fd_sc_hd__o211a_1
*I *495:A I *D sky130_fd_sc_hd__inv_2
*I *620:A I *D sky130_fd_sc_hd__buf_2
*I *585:Q O *D sky130_fd_sc_hd__dfxtp_1
*CAP
1 *517:A1 7.15953e-05
2 *495:A 0
3 *620:A 0
4 *585:Q 0
5 *117:51 0.000102486
6 *117:45 0.000952143
7 *117:39 0.00147023
8 *117:20 0.000136339
9 *117:14 0.00282283
10 *117:4 0.00337865
11 *517:A1 *128:31 0.000139357
12 *117:14 *119:23 0.00112104
13 *117:14 *119:44 1.40958e-05
14 *117:14 *139:16 3.14853e-05
15 *117:39 *626:A 0
16 *117:39 *123:10 0.000187129
17 *117:39 *139:16 0.000382194
18 *117:45 *517:C1 5.50106e-05
19 *117:45 *128:31 0.000717283
20 *117:51 *519:C1 4.49946e-05
21 *117:51 *125:29 6.16531e-05
22 *117:51 *126:16 5.21127e-05
23 *517:A2 *517:A1 4.07999e-05
24 *517:A2 *117:45 0
25 *578:CLK *117:51 0
26 *579:CLK *117:39 3.35836e-05
27 *585:D *117:14 8.72052e-05
28 *586:CLK *117:14 0.000384793
29 *587:CLK *117:14 1.94812e-05
30 *587:D *117:14 3.24476e-06
31 *39:10 *117:39 6.33511e-05
32 *43:22 *117:14 1.48553e-05
33 *56:40 *117:14 4.79612e-05
34 *71:14 *117:14 0.000148435
35 *79:44 *117:45 1.94812e-05
36 *80:47 *117:39 2.15048e-05
37 *104:112 *117:14 0.000143059
38 *110:12 *117:45 3.80641e-05
*RES
1 *585:Q *117:4 23 
2 *117:4 *117:14 43.8314 
3 *117:14 *117:20 32.2579 
4 *117:20 *620:A 23 
5 *117:4 *117:39 44.1064 
6 *117:39 *117:45 13.7543 
7 *117:45 *117:51 32.2579 
8 *117:51 *495:A 23 
9 *117:45 *517:A1 25.0714 
*END

*D_NET *118 0.0120166
*CONN
*I *494:A I *D sky130_fd_sc_hd__inv_2
*I *519:A1 I *D sky130_fd_sc_hd__o211a_1
*I *621:A I *D sky130_fd_sc_hd__buf_2
*I *557:B1 I *D sky130_fd_sc_hd__o41a_1
*I *586:Q O *D sky130_fd_sc_hd__dfxtp_1
*CAP
1 *494:A 0
2 *519:A1 2.14194e-05
3 *621:A 0
4 *557:B1 0.000459584
5 *586:Q 0
6 *118:53 0.000528487
7 *118:36 0.00265686
8 *118:34 0.00224817
9 *118:25 0.000359384
10 *118:6 0.000677758
11 *557:B1 *133:124 5.50049e-05
12 *118:36 *519:C1 0.000123934
13 *118:36 *626:A 0.000620179
14 *118:36 *122:12 0.000177909
15 *118:36 *122:25 7.88828e-05
16 *118:53 *518:A 0.000361027
17 *118:53 *126:39 5.50106e-05
18 *118:53 *126:47 0.000195248
19 *558:B *557:B1 5.58315e-05
20 *619:A *118:25 0.00010776
21 *619:A *118:34 0.000257564
22 *619:A *118:36 6.17437e-06
23 *24:8 *118:36 4.56101e-05
24 *25:8 *118:36 3.53115e-05
25 *27:8 *118:53 8.47188e-05
26 *56:25 *557:B1 8.4047e-05
27 *68:8 *557:B1 0
28 *78:40 *557:B1 0
29 *87:8 *519:A1 5.90675e-06
30 *87:8 *118:36 5.25848e-05
31 *87:8 *118:53 0.000144067
32 *103:106 *557:B1 0
33 *107:53 *557:B1 0.000143655
34 *107:60 *557:B1 4.17736e-05
35 *110:37 *118:53 0.000143655
36 *113:23 *118:36 0.00036394
37 *113:25 *118:25 0.000272383
38 *113:25 *118:34 0.000663648
39 *113:25 *118:36 0.000847019
40 *115:36 *557:B1 4.20739e-05
*RES
1 *586:Q *118:6 38 
2 *118:6 *557:B1 46.6793 
3 *118:6 *118:25 20.6136 
4 *118:25 *621:A 23 
5 *118:25 *118:34 7.78857 
6 *118:34 *118:36 49.6936 
7 *118:36 *519:A1 23.4971 
8 *118:36 *118:53 43.7336 
9 *118:53 *494:A 23 
*END

*D_NET *119 0.00629817
*CONN
*I *493:A I *D sky130_fd_sc_hd__inv_2
*I *603:A I *D sky130_fd_sc_hd__dlygate4sd3_1
*I *622:A I *D sky130_fd_sc_hd__buf_2
*I *587:Q O *D sky130_fd_sc_hd__dfxtp_1
*CAP
1 *493:A 0.00023596
2 *603:A 0
3 *622:A 0
4 *587:Q 0
5 *119:44 0.000628189
6 *119:23 0.000693552
7 *119:10 0.000145716
8 *119:4 0.000447039
9 *493:A *551:B1 0.000471386
10 *493:A *128:16 4.19743e-05
11 *119:10 *120:20 0
12 *119:23 *561:B1 5.60174e-05
13 *119:44 *551:B1 6.82097e-05
14 *119:44 *122:12 0
15 *119:44 *128:16 0.000235386
16 dac_in[7] *119:10 4.68476e-05
17 *502:A *493:A 0.00017761
18 *551:A2 *119:44 5.50106e-05
19 *553:A1 *119:44 0.000313255
20 *556:A1 *119:44 4.79641e-05
21 *585:D *119:23 2.18506e-05
22 *585:D *119:44 5.50049e-05
23 *45:8 *119:44 4.60263e-05
24 *60:49 *119:23 8.65337e-05
25 *60:57 *119:23 0.00024984
26 *71:14 *119:23 0.000196108
27 *90:67 *119:44 5.50049e-05
28 *99:30 *119:44 3.33144e-05
29 *104:112 *493:A 0.000613273
30 *112:39 *119:23 0.000141954
31 *117:14 *119:23 0.00112104
32 *117:14 *119:44 1.40958e-05
*RES
1 *587:Q *119:4 23 
2 *119:4 *119:10 32.61 
3 *119:10 *622:A 23 
4 *119:4 *119:23 14.6243 
5 *119:23 *603:A 23 
6 *119:23 *119:44 40.7093 
7 *119:44 *493:A 32.6736 
*END

*D_NET *120 0.0197366
*CONN
*I *521:C1 I *D sky130_fd_sc_hd__o211a_1
*I *601:A I *D sky130_fd_sc_hd__buf_2
*I *611:X O *D sky130_fd_sc_hd__buf_1
*CAP
1 *521:C1 0.00023694
2 *601:A 0.00023385
3 *611:X 7.99682e-05
4 *120:45 0.00135081
5 *120:39 0.00137207
6 *120:20 0.00114163
7 *120:12 0.00555802
8 *120:10 0.00490845
9 *120:8 7.99682e-05
10 *521:C1 *503:B 3.97399e-05
11 *521:C1 *137:10 3.04021e-05
12 *601:A *525:A 0.000398655
13 *601:A *525:C 3.81554e-05
14 *601:A *136:29 9.75779e-05
15 *120:20 *121:8 0
16 *120:20 *134:40 0
17 *120:39 *525:A 5.50106e-05
18 *120:39 *554:C 7.88926e-05
19 *120:39 *122:12 1.01436e-05
20 *120:39 *134:40 4.19743e-05
21 *120:45 *124:12 1.54983e-05
22 dac_in[0] *120:8 0
23 dac_in[7] *120:20 0
24 *532:A_N *601:A 1.01436e-05
25 *535:A1 *120:39 0.000339977
26 *535:A1 *120:45 5.10805e-05
27 *547:A2 *120:20 4.8124e-05
28 *547:B2 *120:20 0
29 *11:9 *601:A 4.73884e-05
30 *56:44 *120:20 3.7124e-05
31 *56:67 *120:20 0
32 *60:42 *120:20 0
33 *60:107 *120:20 5.97612e-05
34 *62:14 *601:A 0.000141879
35 *66:12 *120:20 2.46922e-05
36 *78:59 *120:20 5.79438e-05
37 *80:47 *521:C1 1.78402e-05
38 *88:10 *521:C1 8.06039e-05
39 *92:12 *120:20 0
40 *94:31 *120:20 5.58702e-05
41 *94:43 *120:20 0
42 *94:43 *120:39 0.000182826
43 *99:19 *120:39 0
44 *101:10 *120:39 7.88926e-05
45 *104:100 *521:C1 6.7177e-06
46 *112:39 *120:39 0
47 *114:62 *601:A 4.9662e-05
48 *115:36 *120:39 0.000288696
49 *115:52 *120:39 8.27026e-05
50 *115:54 *120:45 0.00134363
51 *115:62 *521:C1 0.000444772
52 *115:77 *521:C1 3.47781e-05
53 *115:77 *120:45 4.17736e-05
54 *116:23 *120:12 0.000441978
55 *119:10 *120:20 0
*RES
1 *611:X *120:8 39.2014 
2 *120:8 *120:10 15 
3 *120:10 *120:12 64.9393 
4 *120:12 *120:20 26.4757 
5 *120:20 *601:A 44.8771 
6 *120:20 *120:39 39.0936 
7 *120:39 *120:45 47.7729 
8 *120:45 *521:C1 44.4836 
*END

*D_NET *121 0.00027596
*CONN
*I *623:A I *D sky130_fd_sc_hd__buf_2
*I *500:Y O *D sky130_fd_sc_hd__inv_2
*CAP
1 *623:A 0
2 *500:Y 0.00013798
3 *121:8 0.00013798
4 *121:8 *122:12 0
5 *120:20 *121:8 0
*RES
1 *500:Y *121:8 40.2579 
2 *121:8 *623:A 38 
*END

*D_NET *122 0.0021848
*CONN
*I *624:A I *D sky130_fd_sc_hd__buf_2
*I *535:B1 I *D sky130_fd_sc_hd__a21o_1
*I *499:Y O *D sky130_fd_sc_hd__inv_2
*CAP
1 *624:A 0
2 *535:B1 0
3 *499:Y 0
4 *122:25 0.000158377
5 *122:12 0.000669038
6 *122:4 0.000827415
7 *122:12 *124:24 4.23348e-05
8 *556:A2 *122:12 6.56969e-05
9 *45:8 *122:12 5.21127e-05
10 *60:57 *122:12 6.94054e-05
11 *67:12 *122:12 0
12 *99:19 *122:12 4.21594e-06
13 *99:30 *122:12 2.92643e-05
14 *112:39 *122:12 0
15 *118:36 *122:12 0.000177909
16 *118:36 *122:25 7.88828e-05
17 *119:44 *122:12 0
18 *120:39 *122:12 1.01436e-05
19 *121:8 *122:12 0
*RES
1 *499:Y *122:4 23 
2 *122:4 *122:12 41.3721 
3 *122:12 *535:B1 23 
4 *122:4 *122:25 32.7757 
5 *122:25 *624:A 23 
*END

*D_NET *123 0.000788167
*CONN
*I *625:A I *D sky130_fd_sc_hd__buf_2
*I *498:Y O *D sky130_fd_sc_hd__inv_2
*CAP
1 *625:A 0
2 *498:Y 0.000217257
3 *123:10 0.000217257
4 *123:10 *626:A 0.000166522
5 *117:39 *123:10 0.000187129
*RES
1 *498:Y *123:10 42.3086 
2 *123:10 *625:A 38 
*END

*D_NET *124 0.00668258
*CONN
*I *626:A I *D sky130_fd_sc_hd__buf_2
*I *545:B1 I *D sky130_fd_sc_hd__a21oi_1
*I *497:Y O *D sky130_fd_sc_hd__inv_2
*CAP
1 *626:A 0.000441007
2 *545:B1 0
3 *497:Y 0
4 *124:24 0.000324131
5 *124:12 0.00103213
6 *124:6 0.001149
7 *124:12 *503:A_N 2.93845e-05
8 *124:12 *126:22 0.00108537
9 *535:A1 *124:12 0.000228001
10 *555:A *124:24 0.000139352
11 *555:B *124:24 1.21972e-05
12 *556:A3 *124:24 6.17437e-06
13 *579:CLK *124:12 0.000163361
14 *24:8 *626:A 2.93845e-05
15 *25:8 *626:A 7.53384e-06
16 *59:8 *124:24 7.53384e-06
17 *67:12 *124:24 8.82147e-05
18 *78:68 *124:24 7.8841e-05
19 *104:100 *124:12 0.000161121
20 *112:39 *124:24 0
21 *114:68 *626:A 0
22 *115:54 *124:12 0.000479325
23 *115:62 *626:A 6.16439e-05
24 *115:62 *124:12 0.000314338
25 *117:39 *626:A 0
26 *118:36 *626:A 0.000620179
27 *120:45 *124:12 1.54983e-05
28 *122:12 *124:24 4.23348e-05
29 *123:10 *626:A 0.000166522
*RES
1 *497:Y *124:6 38 
2 *124:6 *124:12 37.1436 
3 *124:12 *124:24 36.8564 
4 *124:24 *545:B1 23 
5 *124:6 *626:A 48.8336 
*END

*D_NET *125 0.005678
*CONN
*I *627:A I *D sky130_fd_sc_hd__buf_2
*I *551:B1 I *D sky130_fd_sc_hd__a21o_1
*I *496:Y O *D sky130_fd_sc_hd__inv_2
*CAP
1 *627:A 0
2 *551:B1 0.00114917
3 *496:Y 0
4 *125:29 0.000328411
5 *125:12 0.00160541
6 *125:4 0.000784643
7 *125:12 *579:D 5.3304e-05
8 *125:12 *140:8 8.4047e-05
9 *125:29 *519:C1 0.000302348
10 *493:A *551:B1 0.000471386
11 *502:A *551:B1 1.22822e-05
12 *519:A2 *125:29 0
13 *88:10 *551:B1 0.000568892
14 *110:37 *125:12 2.20111e-05
15 *110:37 *125:29 0.000166237
16 *117:51 *125:29 6.16531e-05
17 *119:44 *551:B1 6.82097e-05
*RES
1 *496:Y *125:4 23 
2 *125:4 *125:12 36.1107 
3 *125:12 *551:B1 40.6693 
4 *125:4 *125:29 37.0221 
5 *125:29 *627:A 23 
*END

*D_NET *126 0.0100412
*CONN
*I *628:A I *D sky130_fd_sc_hd__buf_2
*I *553:B1 I *D sky130_fd_sc_hd__a21o_1
*I *495:Y O *D sky130_fd_sc_hd__inv_2
*CAP
1 *628:A 0
2 *553:B1 0
3 *495:Y 4.25104e-05
4 *126:47 0.000158333
5 *126:39 0.000881982
6 *126:22 0.00195751
7 *126:16 0.00219342
8 *126:6 0.00100207
9 *126:16 *136:94 0
10 *126:22 *503:A_N 0.000223568
11 *126:22 *503:B 5.50049e-05
12 *126:22 *128:16 3.39192e-05
13 *126:39 *518:B 0
14 *126:47 *606:A 5.67058e-05
15 *126:47 *127:10 0
16 *550:B *126:22 1.86493e-05
17 *578:CLK *126:16 7.10099e-05
18 *27:8 *126:47 5.41385e-05
19 *64:10 *126:22 8.62876e-05
20 *86:10 *126:16 0.000224679
21 *90:67 *126:22 0
22 *104:69 *126:16 7.91493e-05
23 *110:37 *126:6 5.50049e-05
24 *110:37 *126:39 0.000879726
25 *111:8 *126:22 4.37586e-06
26 *111:38 *126:16 0.00010018
27 *111:38 *126:22 0.000475261
28 *117:51 *126:16 5.21127e-05
29 *118:53 *126:39 5.50106e-05
30 *118:53 *126:47 0.000195248
31 *124:12 *126:22 0.00108537
*RES
1 *495:Y *126:6 23.6214 
2 *126:6 *126:16 35.9657 
3 *126:16 *126:22 45.5121 
4 *126:22 *553:B1 38 
5 *126:6 *126:39 43.4021 
6 *126:39 *126:47 34.06 
7 *126:47 *628:A 23 
*END

*D_NET *127 0.000844425
*CONN
*I *629:A I *D sky130_fd_sc_hd__buf_2
*I *494:Y O *D sky130_fd_sc_hd__inv_2
*CAP
1 *629:A 0
2 *494:Y 0.000364775
3 *127:10 0.000364775
4 *127:10 *606:A 0
5 *127:10 *637:A 9.01041e-05
6 *110:37 *127:10 2.47702e-05
7 *111:44 *127:10 0
8 *126:47 *127:10 0
*RES
1 *494:Y *127:10 43.7379 
2 *127:10 *629:A 38 
*END

*D_NET *128 0.0136763
*CONN
*I *630:A I *D sky130_fd_sc_hd__buf_2
*I *561:B1 I *D sky130_fd_sc_hd__a21oi_1
*I *493:Y O *D sky130_fd_sc_hd__inv_2
*CAP
1 *630:A 0
2 *561:B1 0.000889906
3 *493:Y 0
4 *128:37 0.000268957
5 *128:31 0.00257363
6 *128:16 0.00166644
7 *128:4 0.00308121
8 *128:31 *636:A 0.000547666
9 *128:31 *137:10 9.67842e-05
10 *128:31 *144:10 5.97238e-05
11 *128:31 *150:8 0.000205566
12 adc_out[6] *128:37 3.23422e-05
13 *493:A *128:16 4.19743e-05
14 *502:A *128:16 0.000208647
15 *502:A *128:31 0.000184527
16 *517:A1 *128:31 0.000139357
17 *517:A2 *128:31 7.43025e-06
18 *551:A2 *128:16 5.50106e-05
19 *577:CLK *128:31 2.98648e-05
20 *577:D *128:31 0.000170785
21 *585:D *561:B1 0.00026808
22 *10:10 *128:37 0.000100284
23 *60:49 *561:B1 6.82514e-05
24 *60:57 *561:B1 0.000663353
25 *64:10 *128:16 0.000278785
26 *88:10 *128:31 0.000188766
27 *90:67 *128:16 5.99567e-06
28 *104:112 *128:16 0.000614968
29 *110:12 *128:31 0.000185428
30 *111:44 *128:37 0
31 *117:45 *128:31 0.000717283
32 *119:23 *561:B1 5.60174e-05
33 *119:44 *128:16 0.000235386
34 *126:22 *128:16 3.39192e-05
*RES
1 *493:Y *128:4 23 
2 *128:4 *128:16 47.3379 
3 *128:16 *561:B1 36.9821 
4 *128:4 *128:31 40.9107 
5 *128:31 *128:37 35.075 
6 *128:37 *630:A 23 
*END

*D_NET *129 0.0139698
*CONN
*I *532:C I *D sky130_fd_sc_hd__and3b_1
*I *525:A I *D sky130_fd_sc_hd__and3_1
*I *524:A I *D sky130_fd_sc_hd__nand2_1
*I *563:A I *D sky130_fd_sc_hd__or2_1
*I *565:A1 I *D sky130_fd_sc_hd__a21o_1
*I *526:A I *D sky130_fd_sc_hd__nand3_1
*I *528:A I *D sky130_fd_sc_hd__nand4_1
*I *541:C_N I *D sky130_fd_sc_hd__nor3b_2
*I *536:D I *D sky130_fd_sc_hd__and4bb_1
*I *533:D1 I *D sky130_fd_sc_hd__o2111a_1
*I *596:X O *D sky130_fd_sc_hd__clkbuf_2
*CAP
1 *532:C 0
2 *525:A 0.000325583
3 *524:A 0.000203571
4 *563:A 0
5 *565:A1 0
6 *526:A 0.00029366
7 *528:A 0
8 *541:C_N 0.000218887
9 *536:D 0.000101846
10 *533:D1 0
11 *596:X 0.000235391
12 *129:98 0.00031486
13 *129:55 0.000418833
14 *129:46 0.000531232
15 *129:40 0.000447353
16 *129:36 0.000389768
17 *129:26 0.000669207
18 *129:24 0.000597977
19 *129:22 0.00180274
20 *129:16 0.00167964
21 *129:12 0.000495971
22 *524:A *537:C 5.50106e-05
23 *525:A *554:C 1.21972e-05
24 *525:A *132:81 0
25 *526:A *565:A2 9.94675e-05
26 *526:A *135:43 0.000257276
27 *541:C_N *541:B 0
28 *129:16 *136:29 0.000262864
29 *129:22 *134:12 0.000179986
30 *129:22 *136:12 0
31 *129:24 *565:A2 2.93845e-05
32 *129:36 *565:A2 0.000119819
33 *129:36 *565:B1 4.34745e-05
34 *129:36 *133:20 0.000778313
35 *129:46 *132:14 0
36 *129:46 *132:34 0
37 *129:46 *132:49 0.000245294
38 *129:46 *135:64 0
39 *532:A_N *525:A 2.24973e-05
40 *532:A_N *129:22 4.76556e-05
41 *542:A *541:C_N 0
42 *543:A_N *541:C_N 5.20202e-05
43 *543:A_N *129:46 4.78793e-05
44 *543:A_N *129:55 5.97612e-05
45 *543:B_N *536:D 7.88926e-05
46 *588:D *129:22 8.38361e-05
47 *601:A *525:A 0.000398655
48 *50:10 *129:36 0
49 *57:8 *541:C_N 0
50 *74:10 *129:40 4.17736e-05
51 *74:10 *129:46 5.67058e-05
52 *76:14 *524:A 0
53 *89:36 *129:40 5.50049e-05
54 *89:36 *129:46 5.50106e-05
55 *89:42 *129:46 0
56 *90:31 *524:A 5.50106e-05
57 *90:31 *526:A 9.58714e-05
58 *91:8 *524:A 4.334e-05
59 *91:23 *524:A 0
60 *93:6 *526:A 4.9662e-05
61 *93:14 *526:A 4.75593e-05
62 *93:36 *526:A 0
63 *94:12 *129:46 0
64 *94:12 *129:55 0
65 *94:23 *541:C_N 0
66 *94:23 *129:55 0
67 *94:51 *129:12 5.12254e-05
68 *99:8 *129:12 0.000228833
69 *99:15 *129:12 5.50106e-05
70 *103:12 *524:A 9.2995e-05
71 *103:26 *129:36 4.66047e-05
72 *103:88 *524:A 0
73 *103:88 *129:98 0
74 *105:10 *129:22 9.10312e-05
75 *105:28 *524:A 2.76611e-06
76 *105:28 *129:22 6.85548e-05
77 *107:10 *129:36 8.85189e-05
78 *107:21 *129:36 5.01986e-05
79 *107:21 *129:46 6.50237e-05
80 *107:91 *129:22 5.97198e-05
81 *108:14 *129:24 6.54702e-05
82 *108:14 *129:36 0.000552123
83 *108:18 *524:A 1.34739e-05
84 *108:18 *129:98 2.96369e-05
85 *108:26 *524:A 0
86 *109:18 *129:46 7.91596e-05
87 *114:62 *129:12 7.22308e-05
88 *114:62 *129:16 5.61255e-06
89 *115:36 *525:A 9.5877e-05
90 *120:39 *525:A 5.50106e-05
*RES
1 *596:X *129:12 29.1521 
2 *129:12 *129:16 18.48 
3 *129:16 *129:22 31.5093 
4 *129:22 *129:24 8.24429 
5 *129:24 *129:26 15 
6 *129:26 *129:36 44.79 
7 *129:36 *129:40 15.6214 
8 *129:40 *129:46 24.57 
9 *129:46 *533:D1 38 
10 *129:46 *129:55 1.90571 
11 *129:55 *536:D 39.5743 
12 *129:55 *541:C_N 42.0186 
13 *129:40 *528:A 23 
14 *129:26 *526:A 44.1729 
15 *129:24 *565:A1 23 
16 *129:22 *129:98 16.5536 
17 *129:98 *563:A 38 
18 *129:98 *524:A 42.2879 
19 *129:16 *525:A 45.2293 
20 *129:12 *532:C 23 
*END

*D_NET *130 0.00536772
*CONN
*I *510:B I *D sky130_fd_sc_hd__or2_1
*I *518:B I *D sky130_fd_sc_hd__or2_1
*I *516:B I *D sky130_fd_sc_hd__or2_1
*I *514:B I *D sky130_fd_sc_hd__or2_1
*I *506:B I *D sky130_fd_sc_hd__or2_1
*I *612:X O *D sky130_fd_sc_hd__buf_1
*CAP
1 *510:B 0
2 *518:B 0.000468126
3 *516:B 0
4 *514:B 1.50079e-05
5 *506:B 0
6 *612:X 0.000714906
7 *130:36 0.000910425
8 *130:25 0.000668965
9 *130:21 0.000536917
10 *130:14 0.000136309
11 *130:8 0.00117647
12 *514:B *514:A 5.50049e-05
13 *514:B *634:A 5.50049e-05
14 *518:B *144:10 7.55491e-05
15 *130:21 *511:C1 5.67058e-05
16 *130:21 *141:6 9.84794e-05
17 *130:36 *144:10 6.07611e-06
18 *130:36 *145:8 0
19 *511:B1 *130:21 0.000151601
20 *519:A2 *518:B 0
21 *575:D *130:8 1.74843e-05
22 *34:10 *130:21 5.50049e-05
23 *36:10 *130:36 0
24 *38:8 *518:B 0.000169683
25 *80:107 *518:B 0
26 *80:107 *130:36 0
27 *104:60 *130:14 0
28 *104:60 *130:25 0
29 *104:60 *130:36 0
30 *104:69 *130:36 0
31 *126:39 *518:B 0
*RES
1 *612:X *130:8 34.6 
2 *130:8 *130:14 32.2579 
3 *130:14 *506:B 23 
4 *130:8 *130:21 6.815 
5 *130:21 *130:25 18.6664 
6 *130:25 *514:B 38.6214 
7 *130:25 *130:36 8.24429 
8 *130:36 *516:B 38 
9 *130:36 *518:B 46.9486 
10 *130:21 *510:B 23 
*END

*D_NET *131 0.00458022
*CONN
*I *631:A I *D sky130_fd_sc_hd__buf_2
*I *506:A I *D sky130_fd_sc_hd__or2_1
*I *572:Q O *D sky130_fd_sc_hd__dfxtp_1
*CAP
1 *631:A 0
2 *506:A 5.1246e-05
3 *572:Q 0
4 *131:27 0.00170781
5 *131:4 0.00175906
6 *131:27 *147:8 0.000119645
7 *131:27 *147:14 0.000598718
8 adc_out[2] *131:27 1.27424e-05
9 *574:D *131:27 7.10068e-06
10 *104:56 *506:A 0.000187129
11 *104:56 *131:27 0.000136774
*RES
1 *572:Q *131:4 23 
2 *131:4 *506:A 25.9 
3 *131:4 *131:27 48.1014 
4 *131:27 *631:A 38 
*END

*D_NET *132 0.013148
*CONN
*I *536:A_N I *D sky130_fd_sc_hd__and4bb_1
*I *546:A I *D sky130_fd_sc_hd__nor2_2
*I *554:A I *D sky130_fd_sc_hd__or4_1
*I *537:A I *D sky130_fd_sc_hd__or4_1
*I *505:D_N I *D sky130_fd_sc_hd__or4b_4
*I *540:A1 I *D sky130_fd_sc_hd__o41a_1
*I *527:A_N I *D sky130_fd_sc_hd__and2b_1
*I *530:A1 I *D sky130_fd_sc_hd__o21a_1
*I *529:A I *D sky130_fd_sc_hd__or2_1
*I *569:A I *D sky130_fd_sc_hd__nand2_1
*I *597:X O *D sky130_fd_sc_hd__clkbuf_2
*CAP
1 *536:A_N 0.000384048
2 *546:A 0
3 *554:A 0.000193718
4 *537:A 1.80505e-05
5 *505:D_N 0.000170212
6 *540:A1 0
7 *527:A_N 0
8 *530:A1 0.000227866
9 *529:A 0
10 *569:A 9.36539e-05
11 *597:X 0.000213351
12 *132:81 0.000466474
13 *132:79 0.000471929
14 *132:77 0.000881726
15 *132:62 0.000881726
16 *132:60 0.000649541
17 *132:49 0.000519696
18 *132:34 0.00058842
19 *132:14 0.000335105
20 *132:8 0.000561154
21 *505:D_N *136:12 0.000210816
22 *536:A_N *133:91 0.000148244
23 *554:A *554:C 5.70419e-05
24 *132:81 *136:12 0.000130733
25 *504:D_N *537:A 2.93747e-05
26 *522:B *505:D_N 8.1796e-05
27 *525:A *132:81 0
28 *529:B *569:A 1.73222e-05
29 *540:A4 *132:77 0.000335392
30 *546:B *132:77 0.000395895
31 *554:B *554:A 7.44257e-05
32 *554:D *554:A 0.000139352
33 *559:A1 *132:60 1.37246e-05
34 *559:A2 *536:A_N 8.06804e-06
35 *559:B1 *536:A_N 9.62666e-05
36 *569:B *569:A 3.81946e-05
37 *570:A2 *530:A1 5.67058e-05
38 *593:A *132:77 5.50049e-05
39 *597:A *132:14 5.3304e-05
40 *599:A *505:D_N 0.000139352
41 *60:8 *132:77 6.07175e-05
42 *60:42 *554:A 0.000133316
43 *76:27 *132:60 3.35885e-05
44 *89:12 *505:D_N 1.86973e-05
45 *89:42 *132:14 0.00016841
46 *89:42 *132:34 3.53348e-05
47 *89:83 *505:D_N 4.24035e-05
48 *89:83 *554:A 5.3051e-05
49 *89:83 *132:81 0.000125375
50 *90:31 *530:A1 0.000123934
51 *90:31 *132:49 0.000170529
52 *91:36 *132:77 0.000703085
53 *95:10 *132:8 0.000144231
54 *95:10 *132:14 0.000427839
55 *95:12 *569:A 4.19743e-05
56 *95:12 *132:14 1.32314e-05
57 *107:21 *132:49 0.000117862
58 *107:31 *132:60 9.67842e-05
59 *107:38 *132:60 8.60475e-05
60 *107:53 *536:A_N 2.82779e-05
61 *107:53 *132:60 0.000438604
62 *107:81 *537:A 5.50049e-05
63 *109:18 *132:60 0.000566283
64 *114:33 *536:A_N 0.000245096
65 *114:33 *132:60 6.48142e-05
66 *114:52 *132:77 9.62666e-05
67 *115:36 *554:A 7.42621e-05
68 *129:46 *132:14 0
69 *129:46 *132:34 0
70 *129:46 *132:49 0.000245294
*RES
1 *597:X *132:8 41.0036 
2 *132:8 *132:14 21.1107 
3 *132:14 *569:A 25.5686 
4 *132:14 *529:A 23 
5 *132:8 *132:34 16.9057 
6 *132:34 *530:A1 27.4329 
7 *132:34 *132:49 36.7943 
8 *132:49 *527:A_N 23 
9 *132:49 *132:60 24.3007 
10 *132:60 *132:62 15 
11 *132:62 *540:A1 23 
12 *132:62 *132:77 21.1907 
13 *132:77 *132:79 15 
14 *132:79 *132:81 5.77929 
15 *132:81 *505:D_N 42.5364 
16 *132:81 *537:A 38.6214 
17 *132:79 *554:A 43.6136 
18 *132:77 *546:A 23 
19 *132:60 *536:A_N 44.6907 
*END

*D_NET *133 0.0125779
*CONN
*I *537:C I *D sky130_fd_sc_hd__or4_1
*I *557:A3 I *D sky130_fd_sc_hd__o41a_1
*I *526:B I *D sky130_fd_sc_hd__nand3_1
*I *541:A I *D sky130_fd_sc_hd__nor3b_2
*I *531:B I *D sky130_fd_sc_hd__and2b_1
*I *536:B_N I *D sky130_fd_sc_hd__and4bb_1
*I *540:A3 I *D sky130_fd_sc_hd__o41a_1
*I *533:C1 I *D sky130_fd_sc_hd__o2111a_1
*I *565:B1 I *D sky130_fd_sc_hd__a21o_1
*I *528:C I *D sky130_fd_sc_hd__nand4_1
*I *598:X O *D sky130_fd_sc_hd__buf_2
*CAP
1 *537:C 0.000432378
2 *557:A3 0
3 *526:B 2.43835e-05
4 *541:A 7.69817e-05
5 *531:B 0
6 *536:B_N 7.69039e-05
7 *540:A3 4.09885e-05
8 *533:C1 0.000339155
9 *565:B1 2.45968e-05
10 *528:C 0
11 *598:X 0
12 *133:124 0.000462463
13 *133:116 0.00109154
14 *133:91 0.000539741
15 *133:64 0.000644587
16 *133:42 0.000380144
17 *133:40 0.000474669
18 *133:34 0.000436431
19 *133:20 0.000205317
20 *133:12 0.000477854
21 *133:6 0.000407655
22 *133:4 0.000314109
23 *133:12 *565:A2 7.91493e-05
24 *133:12 *135:43 7.94394e-05
25 *133:40 *528:D 3.5471e-05
26 *133:40 *135:51 0.000400198
27 *133:40 *135:64 0.000339893
28 *133:64 *541:B 2.24608e-05
29 *133:64 *135:64 0.000194251
30 *133:91 *531:A_N 6.17437e-06
31 *504:D_N *537:C 0.000181125
32 *524:A *537:C 5.50106e-05
33 *533:A1 *533:C1 4.9662e-05
34 *533:A2 *533:C1 4.40918e-05
35 *536:A_N *133:91 0.000148244
36 *537:B *537:C 2.18506e-05
37 *540:B1 *533:C1 5.3304e-05
38 *540:B1 *540:A3 5.3304e-05
39 *543:B_N *536:B_N 2.02872e-05
40 *549:C_N *133:124 0
41 *557:A1 *133:124 0
42 *557:B1 *133:124 5.50049e-05
43 *558:B *133:124 0
44 *559:A1 *536:B_N 0
45 *559:A1 *133:64 5.86473e-05
46 *559:A2 *536:B_N 2.3853e-05
47 *567:A *133:12 0
48 *55:14 *533:C1 7.42621e-05
49 *56:25 *541:A 0.000143655
50 *56:25 *133:91 2.88036e-05
51 *73:10 *133:20 2.4754e-05
52 *76:27 *133:12 0
53 *76:27 *133:40 0.000363064
54 *76:27 *133:64 1.01436e-05
55 *77:8 *133:124 0
56 *78:23 *133:64 8.04817e-05
57 *89:36 *133:20 6.07611e-06
58 *90:31 *537:C 0.000178477
59 *90:31 *133:6 7.44161e-06
60 *90:31 *133:40 4.95081e-05
61 *91:59 *133:124 6.57906e-05
62 *93:6 *133:6 9.58714e-05
63 *93:6 *133:116 9.67842e-05
64 *93:36 *133:116 8.60475e-05
65 *93:36 *133:124 0.000293558
66 *94:31 *133:91 0.000123707
67 *103:26 *133:12 7.21237e-05
68 *103:26 *133:20 0.000663653
69 *106:12 *537:C 0.000227208
70 *106:12 *133:116 1.22822e-05
71 *106:12 *133:124 0
72 *107:10 *133:20 8.62876e-05
73 *107:21 *133:20 1.14452e-05
74 *107:53 *133:91 1.43747e-05
75 *107:81 *537:C 0.000267167
76 *108:18 *133:124 0
77 *109:24 *133:124 0
78 *114:33 *541:A 5.12254e-05
79 *114:33 *133:91 2.81216e-05
80 *115:36 *133:91 0.00019309
81 *115:36 *133:124 2.93747e-05
82 *129:36 *565:B1 4.34745e-05
83 *129:36 *133:20 0.000778313
*RES
1 *598:X *133:4 23 
2 *133:4 *133:6 1.57429 
3 *133:6 *133:12 34.7229 
4 *133:12 *133:20 40.15 
5 *133:20 *528:C 23 
6 *133:12 *565:B1 23.6214 
7 *133:6 *133:34 0.849286 
8 *133:34 *133:40 25.4607 
9 *133:40 *133:42 15 
10 *133:42 *533:C1 28.9243 
11 *133:42 *540:A3 23.6214 
12 *133:40 *133:64 2.96214 
13 *133:64 *536:B_N 39.1186 
14 *133:64 *133:91 36.695 
15 *133:91 *531:B 23 
16 *133:91 *541:A 25.4236 
17 *133:34 *526:B 23.4971 
18 *133:4 *133:116 3.37643 
19 *133:116 *133:124 39.2179 
20 *133:124 *557:A3 23 
21 *133:116 *537:C 33.6264 
*END

*D_NET *134 0.00443553
*CONN
*I *505:B I *D sky130_fd_sc_hd__or4b_4
*I *525:B I *D sky130_fd_sc_hd__and3_1
*I *554:C I *D sky130_fd_sc_hd__or4_1
*I *532:B I *D sky130_fd_sc_hd__and3b_1
*I *504:B I *D sky130_fd_sc_hd__nor4b_1
*I *599:X O *D sky130_fd_sc_hd__buf_1
*CAP
1 *505:B 0
2 *525:B 2.91412e-05
3 *554:C 0.000200385
4 *532:B 0
5 *504:B 0.000113423
6 *599:X 0.00022385
7 *134:40 0.000536519
8 *134:27 0.000737899
9 *134:12 0.000650307
10 *134:6 0.000329829
11 *134:6 *505:C 0.000136738
12 *134:6 *136:29 2.93845e-05
13 *134:27 *525:C 3.64189e-05
14 *134:27 *136:29 0.000135013
15 *134:40 *525:C 8.90453e-05
16 *525:A *554:C 1.21972e-05
17 *532:A_N *134:12 2.2539e-05
18 *554:A *554:C 5.70419e-05
19 *554:B *554:C 1.09903e-05
20 *599:A *134:6 2.80512e-05
21 *53:12 *504:B 1.32939e-05
22 *54:8 *134:27 0
23 *79:8 *134:27 0.000108836
24 *92:12 *134:40 5.50049e-05
25 *94:43 *134:40 8.80821e-05
26 *94:51 *134:27 3.81391e-05
27 *94:51 *134:40 0.000116946
28 *105:10 *134:12 0.000155451
29 *105:14 *504:B 9.41704e-05
30 *105:14 *134:27 4.08664e-05
31 *107:81 *504:B 3.7681e-05
32 *112:39 *134:27 0
33 *115:36 *554:C 7.43025e-06
34 *120:20 *134:40 0
35 *120:39 *554:C 7.88926e-05
36 *120:39 *134:40 4.19743e-05
37 *129:22 *134:12 0.000179986
*RES
1 *599:X *134:6 26.0036 
2 *134:6 *134:12 32.61 
3 *134:12 *504:B 25.0714 
4 *134:12 *134:27 21.3179 
5 *134:27 *532:B 38 
6 *134:27 *134:40 22.0014 
7 *134:40 *554:C 26.9771 
8 *134:40 *525:B 23.4971 
9 *134:6 *505:B 23 
*END

*D_NET *135 0.0155482
*CONN
*I *525:C I *D sky130_fd_sc_hd__and3_1
*I *505:C I *D sky130_fd_sc_hd__or4b_4
*I *563:B I *D sky130_fd_sc_hd__or2_1
*I *531:A_N I *D sky130_fd_sc_hd__and2b_1
*I *492:A I *D sky130_fd_sc_hd__inv_2
*I *526:C I *D sky130_fd_sc_hd__nand3_1
*I *541:B I *D sky130_fd_sc_hd__nor3b_2
*I *536:C I *D sky130_fd_sc_hd__and4bb_1
*I *528:D I *D sky130_fd_sc_hd__nand4_1
*I *565:A2 I *D sky130_fd_sc_hd__a21o_1
*I *600:X O *D sky130_fd_sc_hd__buf_2
*CAP
1 *525:C 0.000344421
2 *505:C 8.45031e-05
3 *563:B 0
4 *531:A_N 0.00023881
5 *492:A 2.44422e-05
6 *526:C 0
7 *541:B 0.000322214
8 *536:C 0.000193196
9 *528:D 0.000211993
10 *565:A2 0.000120315
11 *600:X 0
12 *135:99 0.000640891
13 *135:64 0.000900233
14 *135:51 0.000695618
15 *135:47 0.000141408
16 *135:43 0.000772216
17 *135:24 0.000603199
18 *135:20 0.000774986
19 *135:8 0.00078629
20 *135:6 0.000402133
21 *525:C *136:29 0.000103324
22 *135:8 *136:29 5.21127e-05
23 *135:20 *136:29 1.83564e-05
24 *522:B *135:20 0.000564544
25 *526:A *565:A2 9.94675e-05
26 *526:A *135:43 0.000257276
27 *541:C_N *541:B 0
28 *542:A *541:B 6.12496e-06
29 *543:B_N *536:C 9.91798e-05
30 *567:A *528:D 2.57449e-05
31 *599:A *505:C 4.05745e-05
32 *599:A *135:20 0.000155678
33 *601:A *525:C 3.81554e-05
34 *11:9 *525:C 0.000481618
35 *11:9 *135:8 0.000100778
36 *11:9 *135:20 0.000111852
37 *56:25 *531:A_N 7.44257e-05
38 *56:25 *541:B 9.84794e-05
39 *68:8 *531:A_N 0
40 *70:10 *531:A_N 0.000114083
41 *74:10 *528:D 0.000184527
42 *76:27 *528:D 7.8735e-05
43 *76:27 *135:47 0
44 *76:27 *135:99 0
45 *77:8 *135:99 0.000289704
46 *77:16 *135:64 6.4393e-05
47 *78:23 *541:B 2.13834e-05
48 *78:40 *531:A_N 0
49 *78:40 *135:99 0
50 *89:12 *135:20 0.000313249
51 *89:22 *135:20 0.000166454
52 *89:22 *135:24 0.000701917
53 *89:36 *528:D 6.44887e-05
54 *90:31 *135:43 0.000183733
55 *90:31 *135:51 0.000439364
56 *93:36 *135:99 0
57 *94:12 *135:64 1.00765e-05
58 *94:23 *536:C 6.12496e-06
59 *94:23 *541:B 0
60 *98:8 *541:B 0.000159018
61 *103:18 *135:20 1.32314e-05
62 *103:18 *135:24 0.000524045
63 *103:88 *135:20 0.000343493
64 *107:21 *528:D 0
65 *107:21 *135:64 0
66 *107:53 *492:A 5.41385e-05
67 *107:53 *531:A_N 2.17571e-05
68 *107:53 *135:99 0.00011076
69 *107:91 *505:C 9.67842e-05
70 *108:14 *565:A2 1.76557e-05
71 *109:24 *135:99 3.72639e-05
72 *114:33 *541:B 6.93222e-05
73 *114:52 *135:99 0.000136486
74 *115:36 *492:A 9.84851e-05
75 *115:36 *525:C 1.95448e-05
76 *115:36 *531:A_N 5.50121e-05
77 *115:36 *541:B 0
78 *129:24 *565:A2 2.93845e-05
79 *129:36 *565:A2 0.000119819
80 *129:46 *135:64 0
81 *133:12 *565:A2 7.91493e-05
82 *133:12 *135:43 7.94394e-05
83 *133:40 *528:D 3.5471e-05
84 *133:40 *135:51 0.000400198
85 *133:40 *135:64 0.000339893
86 *133:64 *541:B 2.24608e-05
87 *133:64 *135:64 0.000194251
88 *133:91 *531:A_N 6.17437e-06
89 *134:6 *505:C 0.000136738
90 *134:27 *525:C 3.64189e-05
91 *134:40 *525:C 8.90453e-05
*RES
1 *600:X *135:6 38 
2 *135:6 *135:8 1.55357 
3 *135:8 *135:20 30.5771 
4 *135:20 *135:24 22.7679 
5 *135:24 *565:A2 41.3557 
6 *135:24 *135:43 36.4214 
7 *135:43 *135:47 15.8493 
8 *135:47 *135:51 19.9093 
9 *135:51 *528:D 43.365 
10 *135:51 *135:64 7.36393 
11 *135:64 *536:C 40.9932 
12 *135:64 *541:B 44.0589 
13 *135:47 *526:C 23 
14 *135:43 *135:99 7.54 
15 *135:99 *492:A 39.0979 
16 *135:99 *531:A_N 43.3029 
17 *135:20 *563:B 23 
18 *135:8 *505:C 40.0507 
19 *135:6 *525:C 46.8243 
*END

*D_NET *136 0.0149177
*CONN
*I *513:C1 I *D sky130_fd_sc_hd__o211a_1
*I *503:B I *D sky130_fd_sc_hd__and2b_1
*I *519:C1 I *D sky130_fd_sc_hd__o211a_1
*I *517:C1 I *D sky130_fd_sc_hd__o211a_1
*I *515:C1 I *D sky130_fd_sc_hd__o211a_1
*I *511:C1 I *D sky130_fd_sc_hd__o211a_1
*I *507:C1 I *D sky130_fd_sc_hd__o211a_1
*I *509:C1 I *D sky130_fd_sc_hd__o211a_1
*I *523:A I *D sky130_fd_sc_hd__nand2_2
*I *522:A I *D sky130_fd_sc_hd__and2_2
*I *601:X O *D sky130_fd_sc_hd__buf_2
*CAP
1 *513:C1 0
2 *503:B 0.000469712
3 *519:C1 0.000435725
4 *517:C1 2.79004e-05
5 *515:C1 3.2539e-05
6 *511:C1 0.000182683
7 *507:C1 5.23327e-05
8 *509:C1 1.74641e-05
9 *523:A 2.14194e-05
10 *522:A 0
11 *601:X 0
12 *136:118 0.000498184
13 *136:94 0.000779776
14 *136:83 0.000658228
15 *136:70 0.000571206
16 *136:57 0.000465757
17 *136:53 0.000933479
18 *136:38 0.000763866
19 *136:29 0.00102055
20 *136:12 0.000359078
21 *136:4 0.00118238
22 *503:B *503:A_N 2.93747e-05
23 *503:B *137:10 3.70094e-05
24 *511:C1 *148:8 0
25 *136:70 *512:A 1.57571e-05
26 *136:70 *148:12 0.000357631
27 *505:D_N *136:12 0.000210816
28 *511:A2 *511:C1 0
29 *512:B *507:C1 0
30 *512:B *136:70 9.24795e-06
31 *521:C1 *503:B 3.97399e-05
32 *523:B *523:A 5.90675e-06
33 *525:C *136:29 0.000103324
34 *532:A_N *136:29 5.3304e-05
35 *599:A *136:29 0.000143655
36 *601:A *136:29 9.75779e-05
37 *79:10 *136:57 1.59094e-05
38 *79:14 *503:B 1.22803e-05
39 *79:14 *136:53 0.000138177
40 *79:14 *136:118 6.10775e-05
41 *79:36 *507:C1 5.70419e-05
42 *79:36 *136:57 5.61255e-06
43 *79:44 *136:83 0
44 *80:15 *136:29 0.000188955
45 *80:15 *136:38 4.95081e-05
46 *80:26 *509:C1 4.00259e-06
47 *80:26 *136:38 0.000205566
48 *80:26 *136:53 4.21471e-05
49 *80:39 *509:C1 9.72057e-06
50 *80:39 *136:53 0.000838044
51 *80:47 *503:B 0.00019158
52 *80:81 *136:57 0.0002263
53 *80:81 *136:70 0.000430442
54 *80:94 *136:83 0
55 *84:8 *507:C1 5.67058e-05
56 *84:8 *136:57 0.000614968
57 *85:10 *136:83 0.000123988
58 *85:10 *136:94 2.76611e-06
59 *86:10 *519:C1 2.76611e-06
60 *86:10 *136:94 5.36457e-05
61 *87:8 *519:C1 2.02517e-05
62 *90:10 *136:29 0.000401106
63 *104:10 *503:B 0
64 *104:10 *136:53 0
65 *104:10 *136:118 0
66 *104:69 *136:94 0
67 *104:100 *503:B 0
68 *107:91 *136:12 5.75298e-05
69 *114:62 *136:12 3.6485e-05
70 *114:62 *136:29 8.77572e-05
71 *114:68 *503:B 0
72 *115:77 *503:B 0.000111852
73 *116:10 *519:C1 0
74 *116:10 *136:83 0
75 *116:10 *136:94 0
76 *116:21 *519:C1 0
77 *116:46 *515:C1 2.93845e-05
78 *117:45 *517:C1 5.50106e-05
79 *117:51 *519:C1 4.49946e-05
80 *118:36 *519:C1 0.000123934
81 *125:29 *519:C1 0.000302348
82 *126:16 *136:94 0
83 *126:22 *503:B 5.50049e-05
84 *129:16 *136:29 0.000262864
85 *129:22 *136:12 0
86 *130:21 *511:C1 5.67058e-05
87 *132:81 *136:12 0.000130733
88 *134:6 *136:29 2.93845e-05
89 *134:27 *136:29 0.000135013
90 *135:8 *136:29 5.21127e-05
91 *135:20 *136:29 1.83564e-05
*RES
1 *601:X *136:4 23 
2 *136:4 *136:12 36.6493 
3 *136:12 *522:A 23 
4 *136:4 *136:29 49.6786 
5 *136:29 *523:A 23.4971 
6 *136:29 *136:38 4.90929 
7 *136:38 *509:C1 23.4971 
8 *136:38 *136:53 28.0293 
9 *136:53 *136:57 23.2443 
10 *136:57 *507:C1 24.9471 
11 *136:57 *136:70 19.9093 
12 *136:70 *511:C1 41.2314 
13 *136:70 *136:83 6.48357 
14 *136:83 *515:C1 38.6214 
15 *136:83 *136:94 5.77929 
16 *136:94 *517:C1 38.6214 
17 *136:94 *519:C1 47.1557 
18 *136:53 *136:118 0.849286 
19 *136:118 *503:B 48.1914 
20 *136:118 *513:C1 38 
*END

*D_NET *137 0.0005361
*CONN
*I *571:CLK I *D sky130_fd_sc_hd__dfxtp_1
*I *502:Y O *D sky130_fd_sc_hd__inv_2
*CAP
1 *571:CLK 0
2 *502:Y 0.000152523
3 *137:10 0.000152523
4 *503:B *137:10 3.70094e-05
5 *521:C1 *137:10 3.04021e-05
6 *80:47 *137:10 6.68587e-05
7 *128:31 *137:10 9.67842e-05
*RES
1 *502:Y *137:10 41.0036 
2 *137:10 *571:CLK 38 
*END

*D_NET *138 0.00147804
*CONN
*I *503:A_N I *D sky130_fd_sc_hd__and2b_1
*I *602:X O *D sky130_fd_sc_hd__dlygate4sd3_1
*CAP
1 *503:A_N 0.000313937
2 *602:X 0.000104352
3 *138:8 0.000418289
4 *503:B *503:A_N 2.93747e-05
5 *571:D *503:A_N 0.000168183
6 *80:47 *138:8 0
7 *111:10 *138:8 0
8 *111:38 *138:8 0
9 *115:54 *503:A_N 9.67842e-05
10 *115:77 *503:A_N 9.41704e-05
11 *124:12 *503:A_N 2.93845e-05
12 *126:22 *503:A_N 0.000223568
*RES
1 *602:X *138:8 39.5536 
2 *138:8 *503:A_N 46.265 
*END

*D_NET *139 0.00275274
*CONN
*I *521:A1 I *D sky130_fd_sc_hd__o211a_1
*I *603:X O *D sky130_fd_sc_hd__dlygate4sd3_1
*CAP
1 *521:A1 0
2 *603:X 0.00088878
3 *139:16 0.00088878
4 *579:CLK *139:16 0.000163955
5 *585:D *139:16 0.00017248
6 *104:112 *139:16 0.000129198
7 *115:62 *139:16 9.58714e-05
8 *117:14 *139:16 3.14853e-05
9 *117:39 *139:16 0.000382194
*RES
1 *603:X *139:16 39.7786 
2 *139:16 *521:A1 23 
*END

*D_NET *140 0.000608292
*CONN
*I *579:D I *D sky130_fd_sc_hd__dfxtp_1
*I *604:X O *D sky130_fd_sc_hd__dlygate4sd3_1
*CAP
1 *579:D 0.000147054
2 *604:X 8.84168e-05
3 *140:8 0.000235471
4 *110:12 *140:8 0
5 *125:12 *579:D 5.3304e-05
6 *125:12 *140:8 8.4047e-05
*RES
1 *604:X *140:8 39.5536 
2 *140:8 *579:D 40.5737 
*END

*D_NET *141 0.000701564
*CONN
*I *510:A I *D sky130_fd_sc_hd__or2_1
*I *605:X O *D sky130_fd_sc_hd__dlygate4sd3_1
*CAP
1 *510:A 0
2 *605:X 0.000301542
3 *141:6 0.000301542
4 *130:21 *141:6 9.84794e-05
*RES
1 *605:X *141:6 28.8621 
2 *141:6 *510:A 23 
*END

*D_NET *142 0.00499106
*CONN
*I *632:A I *D sky130_fd_sc_hd__buf_2
*I *508:A I *D sky130_fd_sc_hd__or2_1
*I *573:Q O *D sky130_fd_sc_hd__dfxtp_1
*CAP
1 *632:A 0
2 *508:A 0.000177871
3 *573:Q 0.000126199
4 *142:19 0.00192485
5 *142:10 0.00210272
6 *142:8 0.000126199
7 *508:B *508:A 0.000361027
8 *508:B *142:8 0
9 *508:B *142:19 0.000172197
*RES
1 *573:Q *142:8 40.2579 
2 *142:8 *142:10 15 
3 *142:10 *508:A 27.9093 
4 *142:10 *142:19 36.3536 
5 *142:19 *632:A 23 
*END

*D_NET *143 0.000680294
*CONN
*I *518:A I *D sky130_fd_sc_hd__or2_1
*I *606:X O *D sky130_fd_sc_hd__dlygate4sd3_1
*CAP
1 *518:A 0.000105776
2 *606:X 0.000105776
3 *27:8 *518:A 7.53384e-06
4 *87:8 *518:A 0.00010018
5 *118:53 *518:A 0.000361027
*RES
1 *606:X *518:A 49.9564 
*END

*D_NET *144 0.00137793
*CONN
*I *516:A I *D sky130_fd_sc_hd__or2_1
*I *607:X O *D sky130_fd_sc_hd__dlygate4sd3_1
*CAP
1 *516:A 0
2 *607:X 0.000576252
3 *144:10 0.000576252
4 *144:10 *150:8 2.30292e-05
5 *518:B *144:10 7.55491e-05
6 *577:D *144:10 9.4636e-06
7 *80:107 *144:10 5.15848e-05
8 *128:31 *144:10 5.97238e-05
9 *130:36 *144:10 6.07611e-06
*RES
1 *607:X *144:10 47.0729 
2 *144:10 *516:A 38 
*END

*D_NET *145 0.00110633
*CONN
*I *514:A I *D sky130_fd_sc_hd__or2_1
*I *608:X O *D sky130_fd_sc_hd__dlygate4sd3_1
*CAP
1 *514:A 0.000282561
2 *608:X 9.53488e-05
3 *145:8 0.00037791
4 *514:A *634:A 0.000295505
5 *514:B *514:A 5.50049e-05
6 *130:36 *145:8 0
*RES
1 *608:X *145:8 39.5536 
2 *145:8 *514:A 44.3386 
*END

*D_NET *146 0.0003938
*CONN
*I *512:A I *D sky130_fd_sc_hd__or2_1
*I *609:X O *D sky130_fd_sc_hd__dlygate4sd3_1
*CAP
1 *512:A 3.44414e-05
2 *609:X 3.44414e-05
3 *512:A *148:12 2.18506e-05
4 *512:B *512:A 0.00028731
5 *136:70 *512:A 1.57571e-05
*RES
1 *609:X *512:A 48.0507 
*END

*D_NET *147 0.0024603
*CONN
*I *605:A I *D sky130_fd_sc_hd__dlygate4sd3_1
*I *633:A I *D sky130_fd_sc_hd__buf_2
*I *574:Q O *D sky130_fd_sc_hd__dfxtp_1
*CAP
1 *605:A 0.000110804
2 *633:A 0
3 *574:Q 0.000280516
4 *147:14 0.000479649
5 *147:8 0.000870969
6 *131:27 *147:8 0.000119645
7 *131:27 *147:14 0.000598718
*RES
1 *574:Q *147:8 42.4329 
2 *147:8 *147:14 27.4286 
3 *147:14 *633:A 23 
4 *147:8 *605:A 39.9057 
*END

*D_NET *148 0.00410003
*CONN
*I *634:A I *D sky130_fd_sc_hd__buf_2
*I *609:A I *D sky130_fd_sc_hd__dlygate4sd3_1
*I *575:Q O *D sky130_fd_sc_hd__dfxtp_1
*CAP
1 *634:A 0.00125384
2 *609:A 0
3 *575:Q 0.000135494
4 *148:12 0.00139177
5 *148:8 0.000273425
6 *511:C1 *148:8 0
7 *512:A *148:12 2.18506e-05
8 *512:B *148:12 0.000143655
9 *514:A *634:A 0.000295505
10 *514:B *634:A 5.50049e-05
11 *80:81 *634:A 4.6595e-05
12 *80:81 *148:12 4.79641e-05
13 *81:10 *148:8 0
14 *85:10 *634:A 7.72885e-05
15 *136:70 *148:12 0.000357631
*RES
1 *575:Q *148:8 39.9057 
2 *148:8 *148:12 19.9093 
3 *148:12 *609:A 23 
4 *148:12 *634:A 48.4164 
*END

*D_NET *149 0.0021401
*CONN
*I *608:A I *D sky130_fd_sc_hd__dlygate4sd3_1
*I *635:A I *D sky130_fd_sc_hd__buf_2
*I *576:Q O *D sky130_fd_sc_hd__dfxtp_1
*CAP
1 *608:A 0
2 *635:A 0
3 *576:Q 0.00027357
4 *149:16 0.000796481
5 *149:8 0.00107005
*RES
1 *576:Q *149:8 27.93 
2 *149:8 *149:16 44.5414 
3 *149:16 *635:A 23 
4 *149:8 *608:A 23 
*END

*D_NET *150 0.00183656
*CONN
*I *636:A I *D sky130_fd_sc_hd__buf_2
*I *607:A I *D sky130_fd_sc_hd__dlygate4sd3_1
*I *577:Q O *D sky130_fd_sc_hd__dfxtp_1
*CAP
1 *636:A 0.000367323
2 *607:A 0
3 *577:Q 0.000162825
4 *150:8 0.000530148
5 *128:31 *636:A 0.000547666
6 *128:31 *150:8 0.000205566
7 *144:10 *150:8 2.30292e-05
*RES
1 *577:Q *150:8 27.8057 
2 *150:8 *607:A 23 
3 *150:8 *636:A 33.6264 
*END

*D_NET *151 0.00327407
*CONN
*I *606:A I *D sky130_fd_sc_hd__dlygate4sd3_1
*I *637:A I *D sky130_fd_sc_hd__buf_2
*I *578:Q O *D sky130_fd_sc_hd__dfxtp_1
*CAP
1 *606:A 0.000257707
2 *637:A 0.000223932
3 *578:Q 0.000423722
4 *151:10 0.000905361
5 *27:8 *606:A 3.53115e-05
6 *110:37 *637:A 0.000704525
7 *110:37 *151:10 0.000576699
8 *126:47 *606:A 5.67058e-05
9 *127:10 *606:A 0
10 *127:10 *637:A 9.01041e-05
*RES
1 *578:Q *151:10 45.1879 
2 *151:10 *637:A 45.7679 
3 *151:10 *606:A 43.0129 
*END
