*SPEF "ieee 1481-1999"
*DESIGN "controller"
*DATE "16:33:36 Thursday December 18, 2025"
*VENDOR "The OpenROAD Project"
*PROGRAM "OpenROAD"
*VERSION "edf00dff99f6c40d67a30c0e22a8191c5d2ed9d6"
*DESIGN_FLOW "NAME_SCOPE LOCAL" "PIN_CAP NONE"
*DIVIDER /
*DELIMITER :
*BUS_DELIMITER []
*T_UNIT 1 NS
*C_UNIT 1 PF
*R_UNIT 1 OHM
*L_UNIT 1 HENRY

*NAME_MAP
*3 adc_out[0]
*4 adc_out[1]
*5 adc_out[2]
*6 adc_out[3]
*7 adc_out[4]
*8 adc_out[5]
*9 adc_out[6]
*10 adc_out[7]
*11 clk
*12 comp
*13 comparator_clk
*14 dac_in[0]
*15 dac_in[1]
*16 dac_in[2]
*17 dac_in[3]
*18 dac_in[4]
*19 dac_in[5]
*20 dac_in[6]
*21 dac_in[7]
*22 dac_in_n[0]
*23 dac_in_n[1]
*24 dac_in_n[2]
*25 dac_in_n[3]
*26 dac_in_n[4]
*27 dac_in_n[5]
*28 dac_in_n[6]
*29 dac_in_n[7]
*30 rst_n
*31 _001_
*32 _002_
*33 _003_
*34 _004_
*35 _005_
*36 _006_
*37 _007_
*38 _008_
*39 _009_
*40 _010_
*41 _011_
*42 _012_
*43 _013_
*44 _014_
*45 _015_
*46 _016_
*47 _017_
*48 _018_
*49 _019_
*50 _020_
*51 _021_
*52 _022_
*53 _023_
*54 _024_
*55 _025_
*56 _026_
*57 _027_
*58 _028_
*59 _029_
*60 _030_
*61 _031_
*62 _032_
*63 _033_
*64 _034_
*65 _035_
*66 _036_
*67 _037_
*68 _038_
*69 _039_
*70 _040_
*71 _041_
*72 _042_
*73 _043_
*74 _044_
*75 _045_
*76 _046_
*77 _047_
*78 _048_
*79 _049_
*80 _050_
*81 _051_
*82 _052_
*83 _053_
*84 _054_
*85 _055_
*86 _056_
*87 _057_
*88 _058_
*89 _059_
*90 _060_
*91 _061_
*92 _062_
*93 _063_
*94 _064_
*95 _065_
*96 _066_
*97 _067_
*98 _068_
*99 _069_
*100 _070_
*101 _071_
*102 clknet_0_clk
*103 clknet_1_0__leaf_clk
*104 clknet_1_1__leaf_clk
*105 count\[0\]
*106 count\[1\]
*107 count\[2\]
*108 count\[3\]
*109 net1
*110 net10
*111 net11
*112 net12
*113 net13
*114 net14
*115 net15
*116 net16
*117 net17
*118 net18
*119 net19
*120 net2
*121 net20
*122 net21
*123 net22
*124 net23
*125 net24
*126 net25
*127 net26
*128 net27
*129 net28
*130 net29
*131 net3
*132 net30
*133 net31
*134 net32
*135 net33
*136 net34
*137 net35
*138 net36
*139 net37
*140 net38
*141 net39
*142 net4
*143 net40
*144 net41
*145 net42
*146 net43
*147 net44
*148 net45
*149 net46
*150 net47
*151 net5
*152 net6
*153 net7
*154 net8
*155 net9
*156 FILLER_0_102
*157 FILLER_0_110
*158 FILLER_0_113
*159 FILLER_0_125
*160 FILLER_0_137
*161 FILLER_0_141
*162 FILLER_0_153
*163 FILLER_0_160
*164 FILLER_0_169
*165 FILLER_0_18
*166 FILLER_0_181
*167 FILLER_0_193
*168 FILLER_0_197
*169 FILLER_0_209
*170 FILLER_0_221
*171 FILLER_0_225
*172 FILLER_0_237
*173 FILLER_0_249
*174 FILLER_0_253
*175 FILLER_0_26
*176 FILLER_0_265
*177 FILLER_0_277
*178 FILLER_0_281
*179 FILLER_0_287
*180 FILLER_0_29
*181 FILLER_0_41
*182 FILLER_0_53
*183 FILLER_0_57
*184 FILLER_0_6
*185 FILLER_0_69
*186 FILLER_0_81
*187 FILLER_0_85
*188 FILLER_0_93
*189 FILLER_1_106
*190 FILLER_1_11
*191 FILLER_1_113
*192 FILLER_1_121
*193 FILLER_1_143
*194 FILLER_1_151
*195 FILLER_1_169
*196 FILLER_1_181
*197 FILLER_1_193
*198 FILLER_1_212
*199 FILLER_1_225
*200 FILLER_1_237
*201 FILLER_1_249
*202 FILLER_1_261
*203 FILLER_1_273
*204 FILLER_1_279
*205 FILLER_1_28
*206 FILLER_1_281
*207 FILLER_1_40
*208 FILLER_1_52
*209 FILLER_1_57
*210 FILLER_1_69
*211 FILLER_1_81
*212 FILLER_1_89
*213 FILLER_2_122
*214 FILLER_2_130
*215 FILLER_2_138
*216 FILLER_2_141
*217 FILLER_2_153
*218 FILLER_2_163
*219 FILLER_2_17
*220 FILLER_2_171
*221 FILLER_2_177
*222 FILLER_2_185
*223 FILLER_2_226
*224 FILLER_2_238
*225 FILLER_2_250
*226 FILLER_2_253
*227 FILLER_2_26
*228 FILLER_2_265
*229 FILLER_2_277
*230 FILLER_2_285
*231 FILLER_2_3
*232 FILLER_2_46
*233 FILLER_2_58
*234 FILLER_2_72
*235 FILLER_2_85
*236 FILLER_2_94
*237 FILLER_3_101
*238 FILLER_3_109
*239 FILLER_3_113
*240 FILLER_3_125
*241 FILLER_3_150
*242 FILLER_3_185
*243 FILLER_3_191
*244 FILLER_3_204
*245 FILLER_3_216
*246 FILLER_3_225
*247 FILLER_3_237
*248 FILLER_3_249
*249 FILLER_3_261
*250 FILLER_3_273
*251 FILLER_3_279
*252 FILLER_3_28
*253 FILLER_3_281
*254 FILLER_3_287
*255 FILLER_3_3
*256 FILLER_3_40
*257 FILLER_3_52
*258 FILLER_3_57
*259 FILLER_3_74
*260 FILLER_3_78
*261 FILLER_3_95
*262 FILLER_4_111
*263 FILLER_4_119
*264 FILLER_4_125
*265 FILLER_4_131
*266 FILLER_4_139
*267 FILLER_4_151
*268 FILLER_4_159
*269 FILLER_4_179
*270 FILLER_4_19
*271 FILLER_4_191
*272 FILLER_4_195
*273 FILLER_4_197
*274 FILLER_4_205
*275 FILLER_4_211
*276 FILLER_4_223
*277 FILLER_4_235
*278 FILLER_4_247
*279 FILLER_4_251
*280 FILLER_4_253
*281 FILLER_4_265
*282 FILLER_4_27
*283 FILLER_4_277
*284 FILLER_4_285
*285 FILLER_4_29
*286 FILLER_4_33
*287 FILLER_4_42
*288 FILLER_4_54
*289 FILLER_4_7
*290 FILLER_4_75
*291 FILLER_4_83
*292 FILLER_4_85
*293 FILLER_4_93
*294 FILLER_5_111
*295 FILLER_5_133
*296 FILLER_5_156
*297 FILLER_5_179
*298 FILLER_5_187
*299 FILLER_5_19
*300 FILLER_5_199
*301 FILLER_5_207
*302 FILLER_5_221
*303 FILLER_5_225
*304 FILLER_5_23
*305 FILLER_5_237
*306 FILLER_5_249
*307 FILLER_5_261
*308 FILLER_5_273
*309 FILLER_5_279
*310 FILLER_5_281
*311 FILLER_5_287
*312 FILLER_5_48
*313 FILLER_5_57
*314 FILLER_5_69
*315 FILLER_5_7
*316 FILLER_5_77
*317 FILLER_5_99
*318 FILLER_6_100
*319 FILLER_6_112
*320 FILLER_6_124
*321 FILLER_6_136
*322 FILLER_6_141
*323 FILLER_6_162
*324 FILLER_6_175
*325 FILLER_6_180
*326 FILLER_6_192
*327 FILLER_6_197
*328 FILLER_6_233
*329 FILLER_6_245
*330 FILLER_6_25
*331 FILLER_6_251
*332 FILLER_6_253
*333 FILLER_6_265
*334 FILLER_6_277
*335 FILLER_6_285
*336 FILLER_6_29
*337 FILLER_6_52
*338 FILLER_6_56
*339 FILLER_6_7
*340 FILLER_6_81
*341 FILLER_6_85
*342 FILLER_6_93
*343 FILLER_7_111
*344 FILLER_7_117
*345 FILLER_7_129
*346 FILLER_7_144
*347 FILLER_7_156
*348 FILLER_7_162
*349 FILLER_7_169
*350 FILLER_7_181
*351 FILLER_7_196
*352 FILLER_7_20
*353 FILLER_7_206
*354 FILLER_7_218
*355 FILLER_7_225
*356 FILLER_7_237
*357 FILLER_7_249
*358 FILLER_7_261
*359 FILLER_7_273
*360 FILLER_7_279
*361 FILLER_7_281
*362 FILLER_7_287
*363 FILLER_7_3
*364 FILLER_7_46
*365 FILLER_7_50
*366 FILLER_7_81
*367 FILLER_7_93
*368 FILLER_8_113
*369 FILLER_8_121
*370 FILLER_8_138
*371 FILLER_8_144
*372 FILLER_8_169
*373 FILLER_8_189
*374 FILLER_8_195
*375 FILLER_8_197
*376 FILLER_8_21
*377 FILLER_8_223
*378 FILLER_8_227
*379 FILLER_8_239
*380 FILLER_8_251
*381 FILLER_8_253
*382 FILLER_8_265
*383 FILLER_8_273
*384 FILLER_8_279
*385 FILLER_8_287
*386 FILLER_8_45
*387 FILLER_8_7
*388 FILLER_9_102
*389 FILLER_9_110
*390 FILLER_9_113
*391 FILLER_9_121
*392 FILLER_9_133
*393 FILLER_9_141
*394 FILLER_9_15
*395 FILLER_9_153
*396 FILLER_9_159
*397 FILLER_9_167
*398 FILLER_9_169
*399 FILLER_9_173
*400 FILLER_9_178
*401 FILLER_9_190
*402 FILLER_9_201
*403 FILLER_9_209
*404 FILLER_9_21
*405 FILLER_9_216
*406 FILLER_9_225
*407 FILLER_9_235
*408 FILLER_9_247
*409 FILLER_9_251
*410 FILLER_9_257
*411 FILLER_9_26
*412 FILLER_9_273
*413 FILLER_9_279
*414 FILLER_9_29
*415 FILLER_9_45
*416 FILLER_9_53
*417 FILLER_9_57
*418 FILLER_9_64
*419 FILLER_9_70
*420 FILLER_9_76
*421 FILLER_9_83
*422 FILLER_9_85
*423 FILLER_9_97
*424 PHY_EDGE_ROW_0_Left_10
*425 PHY_EDGE_ROW_0_Right_0
*426 PHY_EDGE_ROW_1_Left_11
*427 PHY_EDGE_ROW_1_Right_1
*428 PHY_EDGE_ROW_2_Left_12
*429 PHY_EDGE_ROW_2_Right_2
*430 PHY_EDGE_ROW_3_Left_13
*431 PHY_EDGE_ROW_3_Right_3
*432 PHY_EDGE_ROW_4_Left_14
*433 PHY_EDGE_ROW_4_Right_4
*434 PHY_EDGE_ROW_5_Left_15
*435 PHY_EDGE_ROW_5_Right_5
*436 PHY_EDGE_ROW_6_Left_16
*437 PHY_EDGE_ROW_6_Right_6
*438 PHY_EDGE_ROW_7_Left_17
*439 PHY_EDGE_ROW_7_Right_7
*440 PHY_EDGE_ROW_8_Left_18
*441 PHY_EDGE_ROW_8_Right_8
*442 PHY_EDGE_ROW_9_Left_19
*443 PHY_EDGE_ROW_9_Right_9
*444 TAP_TAPCELL_ROW_0_20
*445 TAP_TAPCELL_ROW_0_21
*446 TAP_TAPCELL_ROW_0_22
*447 TAP_TAPCELL_ROW_0_23
*448 TAP_TAPCELL_ROW_0_24
*449 TAP_TAPCELL_ROW_0_25
*450 TAP_TAPCELL_ROW_0_26
*451 TAP_TAPCELL_ROW_0_27
*452 TAP_TAPCELL_ROW_0_28
*453 TAP_TAPCELL_ROW_0_29
*454 TAP_TAPCELL_ROW_1_30
*455 TAP_TAPCELL_ROW_1_31
*456 TAP_TAPCELL_ROW_1_32
*457 TAP_TAPCELL_ROW_1_33
*458 TAP_TAPCELL_ROW_1_34
*459 TAP_TAPCELL_ROW_2_35
*460 TAP_TAPCELL_ROW_2_36
*461 TAP_TAPCELL_ROW_2_37
*462 TAP_TAPCELL_ROW_2_38
*463 TAP_TAPCELL_ROW_2_39
*464 TAP_TAPCELL_ROW_3_40
*465 TAP_TAPCELL_ROW_3_41
*466 TAP_TAPCELL_ROW_3_42
*467 TAP_TAPCELL_ROW_3_43
*468 TAP_TAPCELL_ROW_3_44
*469 TAP_TAPCELL_ROW_4_45
*470 TAP_TAPCELL_ROW_4_46
*471 TAP_TAPCELL_ROW_4_47
*472 TAP_TAPCELL_ROW_4_48
*473 TAP_TAPCELL_ROW_4_49
*474 TAP_TAPCELL_ROW_5_50
*475 TAP_TAPCELL_ROW_5_51
*476 TAP_TAPCELL_ROW_5_52
*477 TAP_TAPCELL_ROW_5_53
*478 TAP_TAPCELL_ROW_5_54
*479 TAP_TAPCELL_ROW_6_55
*480 TAP_TAPCELL_ROW_6_56
*481 TAP_TAPCELL_ROW_6_57
*482 TAP_TAPCELL_ROW_6_58
*483 TAP_TAPCELL_ROW_6_59
*484 TAP_TAPCELL_ROW_7_60
*485 TAP_TAPCELL_ROW_7_61
*486 TAP_TAPCELL_ROW_7_62
*487 TAP_TAPCELL_ROW_7_63
*488 TAP_TAPCELL_ROW_7_64
*489 TAP_TAPCELL_ROW_8_65
*490 TAP_TAPCELL_ROW_8_66
*491 TAP_TAPCELL_ROW_8_67
*492 TAP_TAPCELL_ROW_8_68
*493 TAP_TAPCELL_ROW_8_69
*494 TAP_TAPCELL_ROW_9_70
*495 TAP_TAPCELL_ROW_9_71
*496 TAP_TAPCELL_ROW_9_72
*497 TAP_TAPCELL_ROW_9_73
*498 TAP_TAPCELL_ROW_9_74
*499 TAP_TAPCELL_ROW_9_75
*500 TAP_TAPCELL_ROW_9_76
*501 TAP_TAPCELL_ROW_9_77
*502 TAP_TAPCELL_ROW_9_78
*503 TAP_TAPCELL_ROW_9_79
*504 _072_
*505 _073_
*506 _074_
*507 _075_
*508 _076_
*509 _077_
*510 _078_
*511 _079_
*512 _080_
*513 _081_
*514 _082_
*515 _083__1
*516 _084_
*517 _085_
*518 _086_
*519 _087_
*520 _088_
*521 _089_
*522 _090_
*523 _091_
*524 _092_
*525 _093_
*526 _094_
*527 _095_
*528 _096_
*529 _097_
*530 _098_
*531 _099_
*532 _100_
*533 _101_
*534 _102_
*535 _103_
*536 _104_
*537 _105_
*538 _106_
*539 _107_
*540 _108_
*541 _109_
*542 _110_
*543 _111_
*544 _112_
*545 _113_
*546 _114_
*547 _115_
*548 _116_
*549 _117_
*550 _118_
*551 _119_
*552 _120_
*553 _121_
*554 _122_
*555 _123_
*556 _124_
*557 _125_
*558 _126_
*559 _127_
*560 _128_
*561 _129_
*562 _130_
*563 _131_
*564 _132_
*565 _133_
*566 _134_
*567 _135_
*568 _136_
*569 _137_
*570 _138_
*571 _139_
*572 _140_
*573 _141_
*574 _142_
*575 _143_
*576 _144_
*577 _145_
*578 _146_
*579 _147_
*580 _148_
*581 _149_
*582 _150_
*583 _151_
*584 _152_
*585 _153_
*586 _154_
*587 _155_
*588 _156_
*589 _157_
*590 _158_
*591 _159_
*592 _160_
*593 _161_
*594 _162_
*595 _163_
*596 _164_
*597 _165_
*598 _166_
*599 _167_
*600 _168_
*601 _169_
*602 _170_
*603 _171_
*604 _172_
*605 clkbuf_0_clk
*606 clkbuf_1_0__f_clk
*607 clkbuf_1_1__f_clk
*608 clkload0
*609 fanout28
*610 fanout30
*611 fanout31
*612 fanout32
*613 fanout33
*614 fanout34
*615 hold1
*616 hold10
*617 hold11
*618 hold12
*619 hold2
*620 hold3
*621 hold4
*622 hold5
*623 hold6
*624 hold7
*625 hold8
*626 hold9
*627 input1
*628 input2
*629 output10
*630 output11
*631 output12
*632 output13
*633 output14
*634 output15
*635 output16
*636 output17
*637 output18
*638 output19
*639 output20
*640 output21
*641 output22
*642 output23
*643 output24
*644 output25
*645 output26
*646 output27
*647 output3
*648 output4
*649 output5
*650 output6
*651 output7
*652 output8
*653 output9
*654 wire29

*PORTS
adc_out[0] O
adc_out[1] O
adc_out[2] O
adc_out[3] O
adc_out[4] O
adc_out[5] O
adc_out[6] O
adc_out[7] O
clk I
comp I
comparator_clk O
dac_in[0] O
dac_in[1] O
dac_in[2] O
dac_in[3] O
dac_in[4] O
dac_in[5] O
dac_in[6] O
dac_in[7] O
dac_in_n[0] O
dac_in_n[1] O
dac_in_n[2] O
dac_in_n[3] O
dac_in_n[4] O
dac_in_n[5] O
dac_in_n[6] O
dac_in_n[7] O
rst_n I

*D_NET *3 0.000991171
*CONN
*P adc_out[0] O
*I *647:X O *D sky130_fd_sc_hd__buf_2
*CAP
1 adc_out[0] 0.000467058
2 *647:X 0.000467058
3 adc_out[0] adc_out[1] 5.70551e-05
4 adc_out[0] *628:A 0
*RES
1 *647:X adc_out[0] 22.5865 
*END

*D_NET *4 0.00100161
*CONN
*P adc_out[1] O
*I *648:X O *D sky130_fd_sc_hd__buf_2
*CAP
1 adc_out[1] 0.000472277
2 *648:X 0.000472277
3 adc_out[1] adc_out[2] 0
4 adc_out[1] *648:A 0
5 adc_out[0] adc_out[1] 5.70551e-05
*RES
1 *648:X adc_out[1] 21.7842 
*END

*D_NET *5 0.000788508
*CONN
*P adc_out[2] O
*I *649:X O *D sky130_fd_sc_hd__buf_2
*CAP
1 adc_out[2] 0.000394254
2 *649:X 0.000394254
3 adc_out[2] adc_out[3] 0
4 adc_out[1] adc_out[2] 0
*RES
1 *649:X adc_out[2] 21.3174 
*END

*D_NET *6 0.00082123
*CONN
*P adc_out[3] O
*I *650:X O *D sky130_fd_sc_hd__buf_2
*CAP
1 adc_out[3] 0.000410615
2 *650:X 0.000410615
3 adc_out[3] adc_out[4] 0
4 adc_out[2] adc_out[3] 0
*RES
1 *650:X adc_out[3] 21.6209 
*END

*D_NET *7 0.00086277
*CONN
*P adc_out[4] O
*I *651:X O *D sky130_fd_sc_hd__buf_2
*CAP
1 adc_out[4] 0.000431385
2 *651:X 0.000431385
3 adc_out[4] adc_out[5] 0
4 adc_out[4] *621:A 0
5 adc_out[3] adc_out[4] 0
*RES
1 *651:X adc_out[4] 20.9086 
*END

*D_NET *8 0.00182086
*CONN
*P adc_out[5] O
*I *652:X O *D sky130_fd_sc_hd__buf_2
*CAP
1 adc_out[5] 0.000651636
2 *652:X 0.000651636
3 adc_out[5] adc_out[6] 0.000109245
4 adc_out[5] adc_out[7] 0.000315158
5 adc_out[5] *638:A 9.31893e-05
6 adc_out[4] adc_out[5] 0
*RES
1 *652:X adc_out[5] 24.7128 
*END

*D_NET *9 0.00142003
*CONN
*P adc_out[6] O
*I *653:X O *D sky130_fd_sc_hd__buf_2
*CAP
1 adc_out[6] 0.000596342
2 *653:X 0.000596342
3 adc_out[6] adc_out[7] 5.4115e-05
4 adc_out[6] dac_in[7] 6.39829e-05
5 adc_out[6] *621:A 0
6 adc_out[6] *629:A 0
7 adc_out[5] adc_out[6] 0.000109245
*RES
1 *653:X adc_out[6] 23.8391 
*END

*D_NET *10 0.00193086
*CONN
*P adc_out[7] O
*I *629:X O *D sky130_fd_sc_hd__buf_2
*CAP
1 adc_out[7] 0.000530398
2 *629:X 0.000530398
3 adc_out[7] dac_in[7] 0.000399831
4 adc_out[7] *638:A 0.00010096
5 adc_out[5] adc_out[7] 0.000315158
6 adc_out[6] adc_out[7] 5.4115e-05
*RES
1 *629:X adc_out[7] 27.0699 
*END

*D_NET *11 0.0076874
*CONN
*P clk I
*I *605:A I *D sky130_fd_sc_hd__clkbuf_16
*CAP
1 clk 0.00359151
2 *605:A 0.00359151
3 *605:A *569:A2 0.00017309
4 *605:A *576:B 0
5 *605:A *628:A 0
6 *605:A *89:22 3.34672e-05
7 *605:A *107:83 0.000188571
8 *605:A *111:8 0
9 *605:A *132:84 0
10 *605:A *133:56 3.79304e-05
11 *605:A *133:74 7.13291e-05
*RES
1 clk *605:A 44.2492 
*END

*D_NET *12 0.000906333
*CONN
*P comp I
*I *627:A I *D sky130_fd_sc_hd__buf_1
*CAP
1 comp 0.000448392
2 *627:A 0.000391003
3 *12:22 5.73895e-05
4 *627:A *639:A 9.54798e-06
*RES
1 comp *627:A 18.7245 
2 comp *12:22 0.241267 
*END

*D_NET *13 0.000864903
*CONN
*P comparator_clk O
*I *630:X O *D sky130_fd_sc_hd__buf_2
*CAP
1 comparator_clk 0.000432451
2 *630:X 0.000432451
*RES
1 *630:X comparator_clk 18.8153 
*END

*D_NET *14 0.00108994
*CONN
*P dac_in[0] O
*I *631:X O *D sky130_fd_sc_hd__buf_2
*CAP
1 dac_in[0] 0.000544971
2 *631:X 0.000544971
*RES
1 *631:X dac_in[0] 24.675 
*END

*D_NET *15 0.00113013
*CONN
*P dac_in[1] O
*I *632:X O *D sky130_fd_sc_hd__buf_2
*CAP
1 dac_in[1] 0.000565067
2 *632:X 0.000565067
*RES
1 *632:X dac_in[1] 25.0857 
*END

*D_NET *16 0.00146256
*CONN
*P dac_in[2] O
*I *633:X O *D sky130_fd_sc_hd__buf_2
*CAP
1 dac_in[2] 0.000728254
2 *633:X 0.000728254
3 dac_in[2] *641:A 6.05161e-06
*RES
1 *633:X dac_in[2] 26.8536 
*END

*D_NET *17 0.00108994
*CONN
*P dac_in[3] O
*I *634:X O *D sky130_fd_sc_hd__buf_2
*CAP
1 dac_in[3] 0.000544971
2 *634:X 0.000544971
*RES
1 *634:X dac_in[3] 24.675 
*END

*D_NET *18 0.00108994
*CONN
*P dac_in[4] O
*I *635:X O *D sky130_fd_sc_hd__buf_2
*CAP
1 dac_in[4] 0.000544971
2 *635:X 0.000544971
*RES
1 *635:X dac_in[4] 24.675 
*END

*D_NET *19 0.00108994
*CONN
*P dac_in[5] O
*I *636:X O *D sky130_fd_sc_hd__buf_2
*CAP
1 dac_in[5] 0.000544971
2 *636:X 0.000544971
*RES
1 *636:X dac_in[5] 24.675 
*END

*D_NET *20 0.00138685
*CONN
*P dac_in[6] O
*I *637:X O *D sky130_fd_sc_hd__buf_2
*CAP
1 dac_in[6] 0.000621602
2 *637:X 0.000621602
3 dac_in[6] *652:A 0.000143651
*RES
1 *637:X dac_in[6] 25.6214 
*END

*D_NET *21 0.0015525
*CONN
*P dac_in[7] O
*I *638:X O *D sky130_fd_sc_hd__buf_2
*CAP
1 dac_in[7] 0.000544343
2 *638:X 0.000544343
3 adc_out[6] dac_in[7] 6.39829e-05
4 adc_out[7] dac_in[7] 0.000399831
*RES
1 *638:X dac_in[7] 25.6214 
*END

*D_NET *22 0.00104975
*CONN
*P dac_in_n[0] O
*I *639:X O *D sky130_fd_sc_hd__buf_2
*CAP
1 dac_in_n[0] 0.000524875
2 *639:X 0.000524875
*RES
1 *639:X dac_in_n[0] 24.2643 
*END

*D_NET *23 0.00134568
*CONN
*P dac_in_n[1] O
*I *640:X O *D sky130_fd_sc_hd__buf_2
*CAP
1 dac_in_n[1] 0.000670188
2 *640:X 0.000670188
3 dac_in_n[1] *640:A 5.30637e-06
*RES
1 *640:X dac_in_n[1] 26.4429 
*END

*D_NET *24 0.00122678
*CONN
*P dac_in_n[2] O
*I *641:X O *D sky130_fd_sc_hd__buf_2
*CAP
1 dac_in_n[2] 0.00060967
2 *641:X 0.00060967
3 dac_in_n[2] *641:A 7.43578e-06
*RES
1 *641:X dac_in_n[2] 25.2107 
*END

*D_NET *25 0.00113013
*CONN
*P dac_in_n[3] O
*I *642:X O *D sky130_fd_sc_hd__buf_2
*CAP
1 dac_in_n[3] 0.000565067
2 *642:X 0.000565067
*RES
1 *642:X dac_in_n[3] 25.0857 
*END

*D_NET *26 0.00108994
*CONN
*P dac_in_n[4] O
*I *643:X O *D sky130_fd_sc_hd__buf_2
*CAP
1 dac_in_n[4] 0.000544971
2 *643:X 0.000544971
*RES
1 *643:X dac_in_n[4] 24.675 
*END

*D_NET *27 0.00108994
*CONN
*P dac_in_n[5] O
*I *644:X O *D sky130_fd_sc_hd__buf_2
*CAP
1 dac_in_n[5] 0.000544971
2 *644:X 0.000544971
*RES
1 *644:X dac_in_n[5] 24.675 
*END

*D_NET *28 0.00113013
*CONN
*P dac_in_n[6] O
*I *645:X O *D sky130_fd_sc_hd__buf_2
*CAP
1 dac_in_n[6] 0.000565067
2 *645:X 0.000565067
*RES
1 *645:X dac_in_n[6] 25.0857 
*END

*D_NET *29 0.00108994
*CONN
*P dac_in_n[7] O
*I *646:X O *D sky130_fd_sc_hd__buf_2
*CAP
1 dac_in_n[7] 0.000544971
2 *646:X 0.000544971
*RES
1 *646:X dac_in_n[7] 24.675 
*END

*D_NET *30 0.000831188
*CONN
*P rst_n I
*I *628:A I *D sky130_fd_sc_hd__buf_1
*CAP
1 rst_n 0.000415594
2 *628:A 0.000415594
3 adc_out[0] *628:A 0
4 *605:A *628:A 0
*RES
1 rst_n *628:A 24.0827 
*END

*D_NET *31 0.000517534
*CONN
*I *584:D I *D sky130_fd_sc_hd__dfxtp_1
*I *516:X O *D sky130_fd_sc_hd__and2b_1
*CAP
1 *584:D 0.000158185
2 *516:X 0.000158185
3 *584:D *516:A_N 0
4 *584:D *516:B 0.000150618
5 *584:D *114:34 5.05456e-05
*RES
1 *516:X *584:D 30.9438 
*END

*D_NET *32 0.000518679
*CONN
*I *585:D I *D sky130_fd_sc_hd__dfxtp_1
*I *520:X O *D sky130_fd_sc_hd__o211a_1
*CAP
1 *585:D 0.000135356
2 *520:X 0.000135356
3 *585:D *585:CLK 0.000247966
*RES
1 *520:X *585:D 30.6402 
*END

*D_NET *33 0.000261097
*CONN
*I *586:D I *D sky130_fd_sc_hd__dfxtp_1
*I *522:X O *D sky130_fd_sc_hd__o211a_1
*CAP
1 *586:D 0.000130548
2 *522:X 0.000130548
3 *586:D *522:A2 0
*RES
1 *522:X *586:D 20.7071 
*END

*D_NET *34 0.000607651
*CONN
*I *587:D I *D sky130_fd_sc_hd__dfxtp_1
*I *524:X O *D sky130_fd_sc_hd__o211a_1
*CAP
1 *587:D 0.00025173
2 *524:X 0.00025173
3 *587:D *524:B1 0
4 *587:D *120:26 0.00010419
*RES
1 *524:X *587:D 32.1759 
*END

*D_NET *35 0.000446114
*CONN
*I *588:D I *D sky130_fd_sc_hd__dfxtp_1
*I *526:X O *D sky130_fd_sc_hd__o211a_1
*CAP
1 *588:D 0.000203499
2 *526:X 0.000203499
3 *588:D *532:B1 7.99677e-06
4 *588:D *649:A 2.62426e-05
5 *588:D *650:A 4.87669e-06
6 *588:D *130:33 0
*RES
1 *526:X *588:D 30.658 
*END

*D_NET *36 0.00163736
*CONN
*I *617:A I *D sky130_fd_sc_hd__dlygate4sd3_1
*I *528:X O *D sky130_fd_sc_hd__o211a_1
*CAP
1 *617:A 0.000520105
2 *528:X 0.000520105
3 *617:A *508:A 0
4 *617:A *528:A1 0.000151347
5 *617:A *529:B 0
6 *617:A *530:B1 0.000150618
7 *617:A *590:D 5.52238e-05
8 *617:A *619:A 5.33005e-05
9 *617:A *636:A 0
10 *617:A *80:62 0.000186662
*RES
1 *528:X *617:A 37.0286 
*END

*D_NET *37 0.000663943
*CONN
*I *619:A I *D sky130_fd_sc_hd__dlygate4sd3_1
*I *530:X O *D sky130_fd_sc_hd__o211a_1
*CAP
1 *619:A 9.95943e-05
2 *530:X 9.95943e-05
3 *619:A *528:A1 5.33005e-05
4 *619:A *529:B 0.000220448
5 *619:A *80:62 8.0089e-05
6 *619:A *103:71 5.7616e-05
7 *617:A *619:A 5.33005e-05
*RES
1 *530:X *619:A 30.9929 
*END

*D_NET *38 0.000604398
*CONN
*I *591:D I *D sky130_fd_sc_hd__dfxtp_1
*I *532:X O *D sky130_fd_sc_hd__o211a_1
*CAP
1 *591:D 0.000103595
2 *532:X 0.000103595
3 *591:D *532:A1 9.91224e-05
4 *591:D *591:CLK 0.000128755
5 *591:D *136:64 0.000169331
*RES
1 *532:X *591:D 30.5688 
*END

*D_NET *39 0.000977729
*CONN
*I *621:A I *D sky130_fd_sc_hd__dlygate4sd3_1
*I *534:X O *D sky130_fd_sc_hd__o211a_1
*CAP
1 *621:A 0.00026384
2 *534:X 0.00026384
3 *621:A *533:B 0.00014232
4 *621:A *534:B1 0
5 *621:A *629:A 2.31791e-05
6 *621:A *653:A 0.00018372
7 *621:A *110:10 0.000100831
8 adc_out[4] *621:A 0
9 adc_out[6] *621:A 0
*RES
1 *534:X *621:A 33.4393 
*END

*D_NET *40 0.00108308
*CONN
*I *593:D I *D sky130_fd_sc_hd__dfxtp_2
*I *547:X O *D sky130_fd_sc_hd__o21a_1
*CAP
1 *593:D 0.000239787
2 *547:X 0.000239787
3 *593:D *543:A1 5.62995e-05
4 *593:D *547:A1 5.71472e-05
5 *593:D *547:B1 0.00010096
6 *593:D *95:12 8.87008e-05
7 *593:D *112:10 0.000300402
*RES
1 *547:X *593:D 24.7473 
*END

*D_NET *41 0.00111073
*CONN
*I *594:D I *D sky130_fd_sc_hd__dfxtp_1
*I *552:Y O *D sky130_fd_sc_hd__a31oi_1
*CAP
1 *594:D 0.000393463
2 *552:Y 0.000393463
3 *594:D *548:B1 8.42801e-05
4 *594:D *604:CLK 0.000101545
5 *594:D *94:33 0.000137983
*RES
1 *552:Y *594:D 33.158 
*END

*D_NET *42 0.000674734
*CONN
*I *595:D I *D sky130_fd_sc_hd__dfxtp_1
*I *557:X O *D sky130_fd_sc_hd__o31a_1
*CAP
1 *595:D 0.000253087
2 *557:X 0.000253087
3 *595:D *558:B1 0
4 *595:D *99:69 8.42801e-05
5 *595:D *104:94 8.42801e-05
6 *595:D *109:22 0
7 *595:D *115:14 0
*RES
1 *557:X *595:D 32.1759 
*END

*D_NET *43 0.000473925
*CONN
*I *596:D I *D sky130_fd_sc_hd__dfxtp_1
*I *561:X O *D sky130_fd_sc_hd__o21a_1
*CAP
1 *596:D 0.00010887
2 *561:X 0.00010887
3 *596:D *564:B1 0
4 *596:D *643:A 0
5 *596:D *99:69 0.000128093
6 *596:D *104:86 0.000128093
*RES
1 *561:X *596:D 30.158 
*END

*D_NET *44 0.00135089
*CONN
*I *597:D I *D sky130_fd_sc_hd__dfxtp_1
*I *565:Y O *D sky130_fd_sc_hd__a31oi_1
*CAP
1 *597:D 0.00023454
2 *565:Y 0.00023454
3 *597:D *509:A 1.64343e-05
4 *597:D *564:A1 0.000272371
5 *597:D *564:B1 8.43535e-06
6 *597:D *565:A1 9.60939e-05
7 *597:D *60:49 5.7616e-05
8 *597:D *90:42 0.000356015
9 *597:D *99:69 7.48418e-05
10 *597:D *104:69 0
*RES
1 *565:Y *597:D 34.1402 
*END

*D_NET *45 0.00121043
*CONN
*I *598:D I *D sky130_fd_sc_hd__dfxtp_1
*I *569:Y O *D sky130_fd_sc_hd__a31oi_1
*CAP
1 *598:D 0.000170779
2 *569:Y 0.000170779
3 *598:D *528:A1 0.00016895
4 *598:D *574:A2 0
5 *598:D *574:B1 5.33005e-05
6 *598:D *575:B1 0.00012501
7 *598:D *598:CLK 0.000128086
8 *598:D *60:23 0
9 *598:D *90:21 0.000104974
10 *598:D *128:16 0.00028855
*RES
1 *569:Y *598:D 33.408 
*END

*D_NET *46 0.00072616
*CONN
*I *599:D I *D sky130_fd_sc_hd__dfxtp_1
*I *573:X O *D sky130_fd_sc_hd__o31a_1
*CAP
1 *599:D 0.000145473
2 *573:X 0.000145473
3 *599:D *515:A 2.4461e-05
4 *599:D *598:CLK 5.33978e-05
5 *599:D *599:CLK 3.3283e-05
6 *599:D *103:23 8.95121e-05
7 *599:D *120:26 0.00023456
*RES
1 *573:X *599:D 31.7786 
*END

*D_NET *47 0.00508567
*CONN
*I *600:D I *D sky130_fd_sc_hd__dfxtp_1
*I *575:X O *D sky130_fd_sc_hd__a211o_1
*CAP
1 *600:D 0.00165449
2 *575:X 0.00165449
3 *600:D *527:B 5.52238e-05
4 *600:D *532:A1 0.000187042
5 *600:D *575:A2 3.69047e-06
6 *600:D *590:D 7.01199e-06
7 *600:D *600:CLK 1.02132e-05
8 *600:D *80:44 0.000476595
9 *600:D *80:62 0.000144951
10 *600:D *80:124 0.00027068
11 *600:D *103:80 0.000504935
12 *600:D *103:82 0.000114217
13 *600:D *126:6 2.13481e-06
*RES
1 *575:X *600:D 46.3321 
*END

*D_NET *48 0.000394621
*CONN
*I *601:D I *D sky130_fd_sc_hd__dfxtp_1
*I *577:X O *D sky130_fd_sc_hd__and3_1
*CAP
1 *601:D 0.000157975
2 *577:X 0.000157975
3 *601:D *576:A 0
4 *601:D *577:C 0
5 *601:D *601:CLK 1.64343e-05
6 *601:D *89:29 5.52238e-05
7 *601:D *114:34 7.01199e-06
*RES
1 *577:X *601:D 29.9438 
*END

*D_NET *49 0.000546446
*CONN
*I *602:D I *D sky130_fd_sc_hd__dfxtp_1
*I *579:X O *D sky130_fd_sc_hd__and3_1
*CAP
1 *602:D 0.000149654
2 *579:X 0.000149654
3 *602:D *579:C 4.03318e-05
4 *602:D *89:65 5.52302e-05
5 *602:D *104:34 8.95186e-05
6 *602:D *105:10 2.56694e-05
7 *602:D *114:34 3.63866e-05
*RES
1 *579:X *602:D 30.6357 
*END

*D_NET *50 0.000525904
*CONN
*I *603:D I *D sky130_fd_sc_hd__dfxtp_2
*I *581:X O *D sky130_fd_sc_hd__and3_1
*CAP
1 *603:D 0.000203742
2 *581:X 0.000203742
3 *603:D *547:B1 2.89016e-05
4 *603:D *593:CLK 8.95186e-05
*RES
1 *581:X *603:D 30.6357 
*END

*D_NET *51 0.000526258
*CONN
*I *604:D I *D sky130_fd_sc_hd__dfxtp_1
*I *583:Y O *D sky130_fd_sc_hd__a21oi_1
*CAP
1 *604:D 0.000156939
2 *583:Y 0.000156939
3 *604:D *542:B 0
4 *604:D *583:A2 1.59689e-05
5 *604:D *583:B1 0.000181083
6 *604:D *94:25 0
7 *604:D *109:12 1.53273e-05
*RES
1 *583:Y *604:D 30.7295 
*END

*D_NET *52 0.00155181
*CONN
*I *556:C I *D sky130_fd_sc_hd__and4bb_1
*I *572:B1 I *D sky130_fd_sc_hd__o211a_1
*I *549:X O *D sky130_fd_sc_hd__and4bb_1
*CAP
1 *556:C 0.000176565
2 *572:B1 1.1624e-05
3 *549:X 0.000106708
4 *52:10 0.000294897
5 *556:C *556:B_N 0.000117581
6 *556:C *78:29 9.25014e-06
7 *556:C *78:48 0.000239463
8 *556:C *107:55 7.65804e-05
9 *556:C *109:22 0.000225616
10 *572:B1 *572:A1 5.52238e-05
11 *572:B1 *132:54 5.52238e-05
12 *52:10 *556:B_N 5.80706e-06
13 *52:10 *78:29 5.58941e-05
14 *52:10 *98:10 6.42338e-05
15 *52:10 *114:30 0
16 *52:10 *133:24 5.71472e-05
*RES
1 *549:X *52:10 15.9786 
2 *52:10 *572:B1 14.3357 
3 *52:10 *556:C 19.3536 
*END

*D_NET *53 0.0017857
*CONN
*I *552:A2 I *D sky130_fd_sc_hd__a31oi_1
*I *550:X O *D sky130_fd_sc_hd__or4_1
*CAP
1 *552:A2 0.000575067
2 *550:X 0.000575067
3 *552:A2 *514:A 0
4 *552:A2 *549:A_N 0.000533203
5 *552:A2 *552:A1 1.7845e-05
6 *552:A2 *583:B1 8.452e-05
7 *552:A2 *78:12 0
8 *552:A2 *94:25 0
*RES
1 *550:X *552:A2 37.0286 
*END

*D_NET *54 0.000530432
*CONN
*I *552:A3 I *D sky130_fd_sc_hd__a31oi_1
*I *551:Y O *D sky130_fd_sc_hd__nand3_1
*CAP
1 *552:A3 9.27485e-05
2 *551:Y 9.27485e-05
3 *552:A3 *551:A 0.000233949
4 *552:A3 *552:A1 5.71472e-05
5 *552:A3 *94:33 5.38388e-05
*RES
1 *551:Y *552:A3 21.5107 
*END

*D_NET *55 0.000724354
*CONN
*I *557:A1 I *D sky130_fd_sc_hd__o31a_1
*I *553:X O *D sky130_fd_sc_hd__o41a_1
*CAP
1 *557:A1 0.000248103
2 *553:X 0.000248103
3 *557:A1 *557:A3 0
4 *557:A1 *562:A 9.77024e-05
5 *557:A1 *572:A1 5.62995e-05
6 *557:A1 *78:48 3.38136e-05
7 *557:A1 *115:14 0
8 *557:A1 *133:10 0
9 *557:A1 *133:14 3.75052e-05
10 *557:A1 *133:24 2.8266e-06
*RES
1 *553:X *557:A1 32.6179 
*END

*D_NET *56 0.00703496
*CONN
*I *558:A2 I *D sky130_fd_sc_hd__a21oi_1
*I *560:A3 I *D sky130_fd_sc_hd__a32o_1
*I *555:B I *D sky130_fd_sc_hd__and2_1
*I *571:A I *D sky130_fd_sc_hd__and2_1
*I *574:A1 I *D sky130_fd_sc_hd__a21oi_1
*I *554:Y O *D sky130_fd_sc_hd__nor3b_2
*CAP
1 *558:A2 0.000155541
2 *560:A3 0
3 *555:B 0.000161754
4 *571:A 0
5 *574:A1 0.000172661
6 *554:Y 0.000381595
7 *56:38 0.000195122
8 *56:34 0.000487875
9 *56:14 0.000764804
10 *56:10 0.0012727
11 *555:B *557:B1 0.00012595
12 *555:B *560:A2 0.000237252
13 *555:B *562:A 0.000159692
14 *555:B *562:C_N 0.000131163
15 *555:B *565:A1 0.000245762
16 *558:A2 *557:B1 0.000203928
17 *558:A2 *561:A1 0.000116468
18 *558:A2 *565:A1 0.000179746
19 *558:A2 *89:37 0.00011891
20 *574:A1 *574:A2 0.000149911
21 *574:A1 *60:23 0.000197262
22 *574:A1 *78:56 9.90477e-05
23 *56:10 *564:A1 1.76039e-05
24 *56:10 *60:49 0
25 *56:10 *99:10 0
26 *56:10 *104:10 5.21653e-05
27 *56:10 *104:14 4.48113e-05
28 *56:10 *104:69 8.72701e-05
29 *56:14 *60:12 0.000366409
30 *56:14 *60:43 0.000167998
31 *56:14 *60:74 0.000123673
32 *56:34 *560:B2 9.90431e-05
33 *56:34 *562:C_N 0.000146805
34 *56:34 *564:A1 0.000225609
35 *56:34 *60:74 8.12838e-05
36 *56:38 *562:B 0
37 *56:38 *565:A1 9.25014e-06
38 *56:38 *89:37 5.58941e-05
*RES
1 *554:Y *56:10 25.7107 
2 *56:10 *56:14 11.6429 
3 *56:14 *574:A1 22.675 
4 *56:14 *571:A 9.3 
5 *56:10 *56:34 10.375 
6 *56:34 *56:38 5.23214 
7 *56:38 *555:B 16.4786 
8 *56:38 *560:A3 9.3 
9 *56:34 *558:A2 18.8893 
*END

*D_NET *57 0.000315085
*CONN
*I *557:A2 I *D sky130_fd_sc_hd__o31a_1
*I *555:X O *D sky130_fd_sc_hd__and2_1
*CAP
1 *557:A2 6.77559e-05
2 *555:X 6.77559e-05
3 *557:A2 *557:A3 5.71472e-05
4 *557:A2 *557:B1 0.00010096
5 *557:A2 *562:A 2.14658e-05
*RES
1 *555:X *557:A2 20.3679 
*END

*D_NET *58 0.00097667
*CONN
*I *557:A3 I *D sky130_fd_sc_hd__o31a_1
*I *556:X O *D sky130_fd_sc_hd__and4bb_1
*CAP
1 *557:A3 0.000313525
2 *556:X 0.000313525
3 *557:A3 *549:A_N 3.34295e-05
4 *557:A3 *611:A 0.000174797
5 *557:A3 *109:22 2.58997e-05
6 *557:A3 *133:10 5.83461e-05
7 *557:A1 *557:A3 0
8 *557:A2 *557:A3 5.71472e-05
*RES
1 *556:X *557:A3 33.8679 
*END

*D_NET *59 0.000469449
*CONN
*I *561:A1 I *D sky130_fd_sc_hd__o21a_1
*I *558:Y O *D sky130_fd_sc_hd__a21oi_1
*CAP
1 *561:A1 0.000144546
2 *558:Y 0.000144546
3 *561:A1 *557:B1 1.21289e-05
4 *561:A1 *558:A1 5.17614e-05
5 *558:A2 *561:A1 0.000116468
*RES
1 *558:Y *561:A1 21.6179 
*END

*D_NET *60 0.00749957
*CONN
*I *562:C_N I *D sky130_fd_sc_hd__or3b_1
*I *560:B1 I *D sky130_fd_sc_hd__a32o_1
*I *564:A2 I *D sky130_fd_sc_hd__a21o_1
*I *563:B I *D sky130_fd_sc_hd__nand2_1
*I *568:C I *D sky130_fd_sc_hd__nand3_1
*I *574:A2 I *D sky130_fd_sc_hd__a21oi_1
*I *566:A2 I *D sky130_fd_sc_hd__a21o_1
*I *571:B I *D sky130_fd_sc_hd__and2_1
*I *559:Y O *D sky130_fd_sc_hd__nor2_2
*CAP
1 *562:C_N 9.59914e-05
2 *560:B1 0
3 *564:A2 0
4 *563:B 0
5 *568:C 0.00023503
6 *574:A2 0.000141197
7 *566:A2 0
8 *571:B 2.1025e-05
9 *559:Y 0.000223622
10 *60:74 0.00021154
11 *60:55 0.000305505
12 *60:49 0.000232792
13 *60:43 0.000338701
14 *60:23 0.000264631
15 *60:12 0.000276579
16 *60:10 0.000416577
17 *562:C_N *560:A2 1.39841e-05
18 *562:C_N *565:A1 0.00010096
19 *562:C_N *78:56 3.38477e-05
20 *568:C *99:16 0.000429527
21 *568:C *99:38 4.59075e-05
22 *571:B *569:A2 5.71472e-05
23 *574:A2 *566:B1 1.46624e-05
24 *574:A2 *575:B1 7.34839e-06
25 *574:A2 *616:A 9.90431e-05
26 *60:10 *559:B 5.31101e-05
27 *60:10 *99:10 5.84171e-05
28 *60:10 *107:55 0.000188734
29 *60:12 *569:A2 8.57023e-05
30 *60:12 *78:56 0.000579061
31 *60:23 *566:B1 4.1331e-06
32 *60:23 *569:A3 0
33 *60:23 *78:56 7.80714e-06
34 *60:23 *90:21 0
35 *60:43 *78:56 0.000302728
36 *60:49 *564:A1 0
37 *60:49 *99:10 0
38 *60:49 *99:38 5.59013e-05
39 *60:49 *99:69 1.02504e-05
40 *60:55 *564:A1 3.57366e-05
41 *60:55 *565:A2 1.58163e-05
42 *60:55 *90:42 2.14658e-05
43 *60:55 *99:16 0
44 *60:55 *99:38 9.90367e-05
45 *60:74 *560:B2 8.66063e-05
46 *60:74 *564:A1 0.000227532
47 *60:74 *78:56 0.000679795
48 *555:B *562:C_N 0.000131163
49 *574:A1 *574:A2 0.000149911
50 *574:A1 *60:23 0.000197262
51 *597:D *60:49 5.7616e-05
52 *598:D *574:A2 0
53 *598:D *60:23 0
54 *56:10 *60:49 0
55 *56:14 *60:12 0.000366409
56 *56:14 *60:43 0.000167998
57 *56:14 *60:74 0.000123673
58 *56:34 *562:C_N 0.000146805
59 *56:34 *60:74 8.12838e-05
*RES
1 *559:Y *60:10 22.9786 
2 *60:10 *60:12 6.69643 
3 *60:12 *571:B 9.83571 
4 *60:12 *60:23 7.35714 
5 *60:23 *566:A2 13.8 
6 *60:23 *574:A2 16.9964 
7 *60:10 *60:43 3 
8 *60:43 *60:49 11.8571 
9 *60:49 *60:55 2.21429 
10 *60:55 *568:C 15.175 
11 *60:55 *563:B 9.3 
12 *60:49 *564:A2 9.3 
13 *60:43 *60:74 6.58036 
14 *60:74 *560:B1 9.3 
15 *60:74 *562:C_N 12.9875 
*END

*D_NET *61 0.000170046
*CONN
*I *561:A2 I *D sky130_fd_sc_hd__o21a_1
*I *560:X O *D sky130_fd_sc_hd__a32o_1
*CAP
1 *561:A2 4.20791e-05
2 *560:X 4.20791e-05
3 *561:A2 *557:B1 0
4 *561:A2 *562:B 5.80706e-06
5 *561:A2 *565:A1 8.00806e-05
*RES
1 *560:X *561:A2 28.6357 
*END

*D_NET *62 0.00185438
*CONN
*I *565:A1 I *D sky130_fd_sc_hd__a31oi_1
*I *562:X O *D sky130_fd_sc_hd__or3b_1
*CAP
1 *565:A1 0.000481554
2 *562:X 0.000481554
3 *565:A1 *557:B1 7.8613e-05
4 *565:A1 *562:B 7.80714e-06
5 *565:A1 *564:B1 2.59355e-05
6 *565:A1 *89:37 6.7027e-05
7 *555:B *565:A1 0.000245762
8 *558:A2 *565:A1 0.000179746
9 *561:A2 *565:A1 8.00806e-05
10 *562:C_N *565:A1 0.00010096
11 *597:D *565:A1 9.60939e-05
12 *56:38 *565:A1 9.25014e-06
*RES
1 *562:X *565:A1 38.0107 
*END

*D_NET *63 0.000747865
*CONN
*I *565:A2 I *D sky130_fd_sc_hd__a31oi_1
*I *563:Y O *D sky130_fd_sc_hd__nand2_1
*CAP
1 *565:A2 0.000255543
2 *563:Y 0.000255543
3 *565:A2 *564:A1 3.14193e-05
4 *565:A2 *564:B1 0.000186662
5 *565:A2 *90:42 2.88018e-06
6 *60:55 *565:A2 1.58163e-05
*RES
1 *563:Y *565:A2 22.0107 
*END

*D_NET *64 0.000126884
*CONN
*I *565:A3 I *D sky130_fd_sc_hd__a31oi_1
*I *564:X O *D sky130_fd_sc_hd__a21o_1
*CAP
1 *565:A3 6.29488e-06
2 *564:X 6.29488e-06
3 *565:A3 *564:A1 5.71472e-05
4 *565:A3 *564:B1 5.71472e-05
*RES
1 *564:X *565:A3 19.1357 
*END

*D_NET *65 0.000411948
*CONN
*I *569:A1 I *D sky130_fd_sc_hd__a31oi_1
*I *566:X O *D sky130_fd_sc_hd__a21o_1
*CAP
1 *569:A1 7.96841e-05
2 *566:X 7.96841e-05
3 *569:A1 *569:A3 6.74815e-05
4 *569:A1 *90:21 0.000142305
5 *569:A1 *90:42 4.27935e-05
*RES
1 *566:X *569:A1 29.7786 
*END

*D_NET *66 0.00127719
*CONN
*I *569:A2 I *D sky130_fd_sc_hd__a31oi_1
*I *567:X O *D sky130_fd_sc_hd__or4_1
*CAP
1 *569:A2 0.000355399
2 *567:X 0.000355399
3 *569:A2 *573:A3 5.52238e-05
4 *569:A2 *69:8 0.00010096
5 *569:A2 *78:56 9.25014e-06
6 *569:A2 *107:70 5.33005e-05
7 *569:A2 *107:83 3.17148e-05
8 *571:B *569:A2 5.71472e-05
9 *605:A *569:A2 0.00017309
10 *60:12 *569:A2 8.57023e-05
*RES
1 *567:X *569:A2 35.2071 
*END

*D_NET *67 0.000994263
*CONN
*I *569:A3 I *D sky130_fd_sc_hd__a31oi_1
*I *568:Y O *D sky130_fd_sc_hd__nand3_1
*CAP
1 *569:A3 0.000304341
2 *568:Y 0.000304341
3 *569:A3 *90:21 7.80714e-06
4 *569:A3 *90:42 0.000310292
5 *569:A1 *569:A3 6.74815e-05
6 *60:23 *569:A3 0
*RES
1 *568:Y *569:A3 32.5464 
*END

*D_NET *68 0.000421625
*CONN
*I *573:A1 I *D sky130_fd_sc_hd__o31a_1
*I *570:X O *D sky130_fd_sc_hd__o41a_1
*CAP
1 *573:A1 0.000136603
2 *570:X 0.000136603
3 *573:A1 *570:B1 9.31893e-05
4 *573:A1 *573:B1 5.52302e-05
*RES
1 *570:X *573:A1 21.2071 
*END

*D_NET *69 0.00205604
*CONN
*I *575:A2 I *D sky130_fd_sc_hd__a211o_1
*I *573:A2 I *D sky130_fd_sc_hd__o31a_1
*I *571:X O *D sky130_fd_sc_hd__and2_1
*CAP
1 *575:A2 0.000168293
2 *573:A2 0.00015242
3 *571:X 0.000278757
4 *69:8 0.00059947
5 *573:A2 *80:25 0.000296852
6 *573:A2 *80:44 1.02504e-05
7 *575:A2 *80:44 0.000232663
8 *575:A2 *90:21 0
9 *575:A2 *126:6 5.33433e-05
10 *575:A2 *128:16 5.03694e-05
11 *69:8 *90:6 8.07313e-05
12 *69:8 *90:21 2.44318e-05
13 *69:8 *128:16 3.81416e-06
14 *569:A2 *69:8 0.00010096
15 *600:D *575:A2 3.69047e-06
*RES
1 *571:X *69:8 17.6214 
2 *69:8 *573:A2 17.5679 
3 *69:8 *575:A2 18.2107 
*END

*D_NET *70 0.00467062
*CONN
*I *573:A3 I *D sky130_fd_sc_hd__o31a_1
*I *572:X O *D sky130_fd_sc_hd__o211a_1
*CAP
1 *573:A3 0.00110017
2 *572:X 0.00110017
3 *573:A3 *570:A1 0.000179759
4 *573:A3 *570:A2 0.00014285
5 *573:A3 *570:A3 5.23057e-05
6 *573:A3 *570:A4 1.32552e-05
7 *573:A3 *570:B1 0.000276211
8 *573:A3 *107:68 0.000388424
9 *573:A3 *107:70 0.00021751
10 *573:A3 *132:54 0.000619043
11 *573:A3 *132:62 0.000416227
12 *573:A3 *132:66 0.00010946
13 *569:A2 *573:A3 5.52238e-05
*RES
1 *572:X *573:A3 45.7071 
*END

*D_NET *71 0.000882566
*CONN
*I *575:B1 I *D sky130_fd_sc_hd__a211o_1
*I *574:Y O *D sky130_fd_sc_hd__a21oi_1
*CAP
1 *575:B1 0.000294427
2 *574:Y 0.000294427
3 *575:B1 *566:B1 0
4 *575:B1 *574:B1 0.000151071
5 *575:B1 *616:A 1.02821e-05
6 *574:A2 *575:B1 7.34839e-06
7 *598:D *575:B1 0.00012501
*RES
1 *574:Y *575:B1 32.2696 
*END

*D_NET *72 0.000305769
*CONN
*I *577:C I *D sky130_fd_sc_hd__and3_1
*I *576:X O *D sky130_fd_sc_hd__or2_1
*CAP
1 *577:C 0.000101822
2 *576:X 0.000101822
3 *577:C *576:A 3.92757e-05
4 *577:C *89:29 6.28499e-05
5 *601:D *577:C 0
*RES
1 *576:X *577:C 29.2429 
*END

*D_NET *73 0.000797939
*CONN
*I *579:C I *D sky130_fd_sc_hd__and3_1
*I *578:X O *D sky130_fd_sc_hd__a21o_1
*CAP
1 *579:C 0.000232268
2 *578:X 0.000232268
3 *579:C *578:A1 0.000266092
4 *579:C *578:B1 7.43578e-06
5 *579:C *89:65 1.95435e-05
6 *602:D *579:C 4.03318e-05
*RES
1 *578:X *579:C 32.2071 
*END

*D_NET *74 0.00184033
*CONN
*I *581:C I *D sky130_fd_sc_hd__and3_1
*I *580:Y O *D sky130_fd_sc_hd__nand2_1
*CAP
1 *581:C 0.000308122
2 *580:Y 0.000308122
3 *581:C *541:A 0.000526575
4 *581:C *541:B 0.000144773
5 *581:C *541:C 1.36181e-05
6 *581:C *541:D 0.000446129
7 *581:C *547:B1 6.33584e-05
8 *581:C *95:6 2.87555e-06
9 *581:C *107:21 2.67601e-05
*RES
1 *580:Y *581:C 36.6 
*END

*D_NET *75 0.000782025
*CONN
*I *583:A2 I *D sky130_fd_sc_hd__a21oi_1
*I *582:Y O *D sky130_fd_sc_hd__nand2_1
*CAP
1 *583:A2 0.000364863
2 *582:Y 0.000364863
3 *583:A2 *542:B 0
4 *583:A2 *582:A 3.18676e-05
5 *583:A2 *583:B1 4.46186e-06
6 *583:A2 *113:18 0
7 *604:D *583:A2 1.59689e-05
*RES
1 *582:Y *583:A2 32.5464 
*END

*D_NET *76 0.0033263
*CONN
*I *550:B I *D sky130_fd_sc_hd__or4_1
*I *553:A2 I *D sky130_fd_sc_hd__o41a_1
*I *572:A1 I *D sky130_fd_sc_hd__o211a_1
*I *580:A I *D sky130_fd_sc_hd__nand2_1
*I *504:Y O *D sky130_fd_sc_hd__inv_2
*CAP
1 *550:B 0.000192098
2 *553:A2 0
3 *572:A1 0.000203329
4 *580:A 0.000132656
5 *504:Y 7.65732e-05
6 *76:32 0.000210059
7 *76:19 0.000308294
8 *76:8 0.000296234
9 *550:B *549:A_N 7.83587e-05
10 *550:B *109:22 0.000180777
11 *550:B *133:14 6.98302e-05
12 *550:B *133:106 2.14658e-05
13 *572:A1 *550:D 9.60875e-05
14 *572:A1 *114:24 0.000139289
15 *572:A1 *132:54 0.000151347
16 *580:A *549:A_N 3.10819e-05
17 *580:A *106:10 4.4432e-05
18 *580:A *114:30 5.25167e-05
19 *76:8 *504:A 6.05161e-06
20 *76:8 *505:A 0.00027344
21 *76:8 *546:C1 2.77173e-05
22 *76:8 *134:8 6.26078e-05
23 *76:8 *134:14 5.33005e-05
24 *76:19 *549:A_N 0.000215234
25 *76:19 *114:30 1.02532e-05
26 *76:19 *133:24 0.000168939
27 *76:32 *549:A_N 5.59013e-05
28 *76:32 *133:14 1.02504e-05
29 *76:32 *133:24 4.66511e-05
30 *557:A1 *572:A1 5.62995e-05
31 *572:B1 *572:A1 5.52238e-05
*RES
1 *504:Y *76:8 16.8 
2 *76:8 *580:A 16.3536 
3 *76:8 *76:19 2.85714 
4 *76:19 *572:A1 18.8714 
5 *76:19 *76:32 0.732143 
6 *76:32 *553:A2 13.8 
7 *76:32 *550:B 17.0143 
*END

*D_NET *77 0.0008651
*CONN
*I *546:A1 I *D sky130_fd_sc_hd__o2111a_1
*I *505:Y O *D sky130_fd_sc_hd__inv_2
*CAP
1 *546:A1 6.98971e-05
2 *505:Y 6.98971e-05
3 *546:A1 *505:A 0.000505667
4 *546:A1 *546:B1 0.000167333
5 *546:A1 *546:C1 5.23057e-05
*RES
1 *505:Y *546:A1 22.8321 
*END

*D_NET *78 0.0114291
*CONN
*I *551:A I *D sky130_fd_sc_hd__nand3_1
*I *560:A1 I *D sky130_fd_sc_hd__a32o_1
*I *575:A1 I *D sky130_fd_sc_hd__a211o_1
*I *568:A I *D sky130_fd_sc_hd__nand3_1
*I *572:C1 I *D sky130_fd_sc_hd__o211a_1
*I *546:A2 I *D sky130_fd_sc_hd__o2111a_1
*I *514:Y O *D sky130_fd_sc_hd__inv_2
*CAP
1 *551:A 0.000344742
2 *560:A1 0
3 *575:A1 0.000263741
4 *568:A 0
5 *572:C1 0
6 *546:A2 0.000107061
7 *514:Y 0
8 *78:56 0.00117328
9 *78:48 0.00127581
10 *78:29 0.00116618
11 *78:12 0.00137058
12 *78:4 0.000808347
13 *546:A2 *541:C 0
14 *546:A2 *546:B1 0
15 *546:A2 *546:D1 0
16 *551:A *94:33 9.17416e-05
17 *575:A1 *566:A1 9.3111e-05
18 *575:A1 *566:B1 0.000266473
19 *575:A1 *568:B 1.04232e-05
20 *575:A1 *575:C1 3.99614e-06
21 *575:A1 *90:21 1.92905e-05
22 *575:A1 *90:42 8.71761e-05
23 *78:12 *514:A 7.83659e-05
24 *78:12 *541:C 0
25 *78:12 *546:B1 0
26 *78:12 *114:24 0
27 *78:29 *114:24 6.4443e-05
28 *78:29 *114:30 0
29 *78:29 *132:46 0.000137515
30 *78:29 *132:54 0.000393949
31 *78:48 *556:B_N 0.00014873
32 *78:48 *562:A 5.58941e-05
33 *78:48 *89:37 0.000148911
34 *78:48 *92:10 0
35 *78:48 *107:55 0.000372737
36 *78:48 *114:30 0
37 *78:48 *115:14 0.000662718
38 *78:48 *133:24 0
39 *552:A2 *78:12 0
40 *552:A3 *551:A 0.000233949
41 *556:C *78:29 9.25014e-06
42 *556:C *78:48 0.000239463
43 *557:A1 *78:48 3.38136e-05
44 *562:C_N *78:56 3.38477e-05
45 *569:A2 *78:56 9.25014e-06
46 *574:A1 *78:56 9.90477e-05
47 *52:10 *78:29 5.58941e-05
48 *60:12 *78:56 0.000579061
49 *60:23 *78:56 7.80714e-06
50 *60:43 *78:56 0.000302728
51 *60:74 *78:56 0.000679795
*RES
1 *514:Y *78:4 9.3 
2 *78:4 *78:12 12.5714 
3 *78:12 *546:A2 15.4429 
4 *78:12 *78:29 19.7143 
5 *78:29 *572:C1 13.8 
6 *78:29 *78:48 26.2321 
7 *78:48 *78:56 27.4821 
8 *78:56 *568:A 9.3 
9 *78:56 *575:A1 15.2107 
10 *78:48 *560:A1 9.3 
11 *78:4 *551:A 14.6929 
*END

*D_NET *79 0.00767622
*CONN
*I *529:B I *D sky130_fd_sc_hd__or2_1
*I *527:B I *D sky130_fd_sc_hd__or2_1
*I *654:A I *D sky130_fd_sc_hd__buf_1
*I *523:B I *D sky130_fd_sc_hd__or2_1
*I *517:Y O *D sky130_fd_sc_hd__nor4b_1
*CAP
1 *529:B 0.000517312
2 *527:B 0.000248145
3 *654:A 0.000145843
4 *523:B 0
5 *517:Y 0.000991106
6 *79:23 0.000930448
7 *79:19 0.00119416
8 *79:10 0.00113149
9 *527:B *526:B1 0.000128161
10 *527:B *527:A 0.000171368
11 *527:B *80:75 0
12 *527:B *80:81 0
13 *527:B *103:80 5.52238e-05
14 *527:B *118:33 0
15 *529:B *529:A 0.00010096
16 *529:B *530:A1 6.65302e-05
17 *529:B *530:B1 0
18 *529:B *103:60 9.88136e-05
19 *529:B *103:71 7.15591e-05
20 *529:B *118:33 0
21 *79:10 *520:A1 0.000182899
22 *79:10 *524:A2 0.00101616
23 *79:10 *524:B1 0
24 *79:10 *80:8 4.47762e-05
25 *79:10 *103:14 7.92975e-05
26 *79:10 *118:8 0
27 *79:19 *103:14 0.000113877
28 *79:19 *103:60 1.52978e-05
29 *79:19 *118:8 0
30 *79:19 *118:33 0
31 *79:23 *103:8 9.71197e-05
32 *600:D *527:B 5.52238e-05
33 *617:A *529:B 0
34 *619:A *529:B 0.000220448
*RES
1 *517:Y *79:10 28.7821 
2 *79:10 *523:B 13.8 
3 *79:10 *79:19 3.16071 
4 *79:19 *79:23 13.6607 
5 *79:23 *654:A 11.4786 
6 *79:23 *527:B 23.8179 
7 *79:19 *529:B 24.9964 
*END

*D_NET *80 0.0177121
*CONN
*I *535:B I *D sky130_fd_sc_hd__and2_2
*I *530:A2 I *D sky130_fd_sc_hd__o211a_1
*I *532:A2 I *D sky130_fd_sc_hd__o211a_1
*I *534:A2 I *D sky130_fd_sc_hd__o211a_1
*I *526:A2 I *D sky130_fd_sc_hd__o211a_1
*I *522:A2 I *D sky130_fd_sc_hd__o211a_1
*I *520:A2 I *D sky130_fd_sc_hd__o211a_1
*I *528:A2 I *D sky130_fd_sc_hd__o211a_1
*I *536:B I *D sky130_fd_sc_hd__nand2_2
*I *524:A2 I *D sky130_fd_sc_hd__o211a_1
*I *518:X O *D sky130_fd_sc_hd__or4b_4
*CAP
1 *535:B 0
2 *530:A2 1.2683e-05
3 *532:A2 2.11343e-05
4 *534:A2 0.000674556
5 *526:A2 3.35889e-05
6 *522:A2 2.2734e-05
7 *520:A2 0.000152114
8 *528:A2 0
9 *536:B 9.70275e-05
10 *524:A2 0.000332102
11 *518:X 0.000190546
12 *80:124 0.00082219
13 *80:91 0.000646671
14 *80:81 0.00116049
15 *80:75 0.00120077
16 *80:62 0.000702988
17 *80:44 0.000635519
18 *80:25 0.000697567
19 *80:12 0.000632314
20 *80:8 0.000229258
21 *520:A2 *520:A1 4.5534e-05
22 *520:A2 *585:CLK 5.57345e-05
23 *520:A2 *103:92 4.1331e-06
24 *520:A2 *113:18 2.09826e-05
25 *520:A2 *130:33 9.01382e-05
26 *524:A2 *515:A 8.58577e-06
27 *524:A2 *520:A1 0.000175761
28 *524:A2 *524:B1 2.89016e-05
29 *524:A2 *584:CLK 9.90431e-05
30 *524:A2 *136:103 2.64724e-05
31 *524:A2 *136:116 0.000493943
32 *526:A2 *526:A1 1.02132e-05
33 *526:A2 *526:B1 1.04232e-05
34 *530:A2 *530:C1 3.99614e-06
35 *530:A2 *103:80 0
36 *532:A2 *532:B1 4.6355e-05
37 *534:A2 *532:B1 0.000194217
38 *534:A2 *534:A1 8.37187e-05
39 *534:A2 *534:C1 0.000966871
40 *534:A2 *651:A 3.63775e-05
41 *536:B *536:A 5.33005e-05
42 *536:B *128:16 1.15172e-05
43 *80:8 *515:A 0
44 *80:8 *517:A 2.14757e-05
45 *80:8 *517:B 1.55885e-05
46 *80:8 *517:C 1.32552e-05
47 *80:8 *517:D_N 0.00010096
48 *80:8 *129:27 0.000315165
49 *80:12 *515:A 0
50 *80:12 *535:A 5.80706e-06
51 *80:12 *573:B1 2.70591e-05
52 *80:25 *515:A 0
53 *80:25 *573:B1 0.000173854
54 *80:25 *120:26 0.00058319
55 *80:44 *508:A 0.00044852
56 *80:44 *530:C1 5.23142e-05
57 *80:44 *598:CLK 0
58 *80:44 *120:26 4.56437e-05
59 *80:44 *126:6 1.92789e-05
60 *80:62 *528:A1 0.000319566
61 *80:62 *528:B1 0
62 *80:62 *528:C1 1.3701e-05
63 *80:62 *530:C1 0.000197148
64 *80:62 *590:D 5.86416e-05
65 *80:62 *103:71 1.02504e-05
66 *80:62 *103:80 3.93247e-05
67 *80:75 *528:A1 3.57366e-05
68 *80:75 *530:C1 4.70078e-05
69 *80:75 *532:A1 0.000171375
70 *80:75 *637:A 3.34366e-05
71 *80:75 *645:A 5.62995e-05
72 *80:75 *118:33 5.33005e-05
73 *80:75 *118:37 0.000447622
74 *80:75 *136:64 3.30352e-05
75 *80:75 *154:10 0
76 *80:81 *525:B 0.000114617
77 *80:81 *526:A1 3.81416e-06
78 *80:81 *526:B1 4.43858e-05
79 *80:81 *526:C1 0.000173022
80 *80:81 *130:12 6.52632e-05
81 *80:91 *520:C1 5.52302e-05
82 *80:91 *526:A1 4.76637e-06
83 *80:91 *649:A 0.000161719
84 *80:91 *130:33 0
85 *80:91 *136:16 0.000260532
86 *527:B *80:75 0
87 *527:B *80:81 0
88 *573:A2 *80:25 0.000296852
89 *573:A2 *80:44 1.02504e-05
90 *575:A2 *80:44 0.000232663
91 *586:D *522:A2 0
92 *600:D *80:44 0.000476595
93 *600:D *80:62 0.000144951
94 *600:D *80:124 0.00027068
95 *617:A *80:62 0.000186662
96 *619:A *80:62 8.0089e-05
97 *79:10 *524:A2 0.00101616
98 *79:10 *80:8 4.47762e-05
*RES
1 *518:X *80:8 14.3714 
2 *80:8 *80:12 5.23214 
3 *80:12 *524:A2 26.5679 
4 *80:12 *80:25 8.625 
5 *80:25 *536:B 15.6036 
6 *80:25 *80:44 16 
7 *80:44 *80:62 18.6607 
8 *80:62 *528:A2 9.3 
9 *80:62 *80:75 14.7857 
10 *80:75 *80:81 16.0357 
11 *80:81 *80:91 16.9464 
12 *80:91 *520:A2 21.8 
13 *80:91 *522:A2 9.72857 
14 *80:81 *526:A2 10.0321 
15 *80:75 *80:124 11.5893 
16 *80:124 *534:A2 28.4071 
17 *80:124 *532:A2 14.5321 
18 *80:44 *530:A2 9.72857 
19 *80:8 *535:B 9.3 
*END

*D_NET *81 0.00102639
*CONN
*I *520:B1 I *D sky130_fd_sc_hd__o211a_1
*I *519:X O *D sky130_fd_sc_hd__or2_1
*CAP
1 *520:B1 0.000263783
2 *519:X 0.000263783
3 *520:B1 *519:A 3.08664e-05
4 *520:B1 *520:A1 0.000100388
5 *520:B1 *520:C1 5.52238e-05
6 *520:B1 *521:B 2.89016e-05
7 *520:B1 *522:B1 5.17614e-05
8 *520:B1 *623:A 9.90431e-05
9 *520:B1 *130:18 0.000132639
*RES
1 *519:X *520:B1 24.9036 
*END

*D_NET *82 0.00222983
*CONN
*I *522:B1 I *D sky130_fd_sc_hd__o211a_1
*I *521:X O *D sky130_fd_sc_hd__or2_1
*CAP
1 *522:B1 0.000690323
2 *521:X 0.000690323
3 *522:B1 *520:C1 0.000147332
4 *522:B1 *521:B 9.70217e-05
5 *522:B1 *622:A 0.000405733
6 *522:B1 *130:33 0.000147332
7 *520:B1 *522:B1 5.17614e-05
*RES
1 *521:X *522:B1 38.2964 
*END

*D_NET *83 0.000686117
*CONN
*I *524:B1 I *D sky130_fd_sc_hd__o211a_1
*I *523:X O *D sky130_fd_sc_hd__or2_1
*CAP
1 *524:B1 0.000276857
2 *523:X 0.000276857
3 *524:B1 *524:A1 4.1331e-06
4 *524:B1 *618:A 0
5 *524:B1 *103:14 6.75007e-05
6 *524:B1 *136:103 3.18676e-05
7 *524:A2 *524:B1 2.89016e-05
8 *587:D *524:B1 0
9 *79:10 *524:B1 0
*RES
1 *523:X *524:B1 32.5107 
*END

*D_NET *84 0.00145854
*CONN
*I *526:B1 I *D sky130_fd_sc_hd__o211a_1
*I *525:X O *D sky130_fd_sc_hd__or2_1
*CAP
1 *526:B1 0.000375886
2 *525:X 0.000375886
3 *526:B1 *526:A1 0.000297816
4 *526:B1 *526:C1 0.000225982
5 *526:A2 *526:B1 1.04232e-05
6 *527:B *526:B1 0.000128161
7 *80:81 *526:B1 4.43858e-05
*RES
1 *525:X *526:B1 37.1536 
*END

*D_NET *85 0.00100032
*CONN
*I *528:B1 I *D sky130_fd_sc_hd__o211a_1
*I *527:X O *D sky130_fd_sc_hd__or2_1
*CAP
1 *528:B1 0.000343093
2 *527:X 0.000343093
3 *528:B1 *103:80 0.000314132
4 *528:B1 *118:33 0
5 *80:62 *528:B1 0
*RES
1 *527:X *528:B1 32.2429 
*END

*D_NET *86 0.000841034
*CONN
*I *530:B1 I *D sky130_fd_sc_hd__o211a_1
*I *529:X O *D sky130_fd_sc_hd__or2_1
*CAP
1 *530:B1 0.000311943
2 *529:X 0.000311943
3 *530:B1 *530:A1 6.65302e-05
4 *530:B1 *636:A 0
5 *529:B *530:B1 0
6 *617:A *530:B1 0.000150618
*RES
1 *529:X *530:B1 33.0286 
*END

*D_NET *87 0.00180292
*CONN
*I *532:B1 I *D sky130_fd_sc_hd__o211a_1
*I *531:X O *D sky130_fd_sc_hd__or2_1
*CAP
1 *532:B1 0.000568668
2 *531:X 0.000568668
3 *532:B1 *531:A 0.00014285
4 *532:B1 *626:A 0.000125731
5 *532:B1 *650:A 2.81943e-05
6 *532:B1 *136:51 0.000109659
7 *532:B1 *136:64 5.80706e-06
8 *532:B1 *152:6 4.76891e-06
9 *532:A2 *532:B1 4.6355e-05
10 *534:A2 *532:B1 0.000194217
11 *588:D *532:B1 7.99677e-06
*RES
1 *531:X *532:B1 37.0286 
*END

*D_NET *88 0.000781607
*CONN
*I *534:B1 I *D sky130_fd_sc_hd__o211a_1
*I *533:X O *D sky130_fd_sc_hd__or2_1
*CAP
1 *534:B1 0.000314596
2 *533:X 0.000314596
3 *534:B1 *533:B 9.90367e-05
4 *534:B1 *592:D 5.33786e-05
5 *534:B1 *103:90 0
6 *621:A *534:B1 0
*RES
1 *533:X *534:B1 32.9214 
*END

*D_NET *89 0.0134569
*CONN
*I *573:B1 I *D sky130_fd_sc_hd__o31a_1
*I *579:A I *D sky130_fd_sc_hd__and3_1
*I *547:B1 I *D sky130_fd_sc_hd__o21a_1
*I *581:A I *D sky130_fd_sc_hd__and3_1
*I *557:B1 I *D sky130_fd_sc_hd__o31a_1
*I *561:B1 I *D sky130_fd_sc_hd__o21a_1
*I *577:A I *D sky130_fd_sc_hd__and3_1
*I *535:X O *D sky130_fd_sc_hd__and2_2
*CAP
1 *573:B1 0.000252723
2 *579:A 0
3 *547:B1 0.000106815
4 *581:A 0
5 *557:B1 0.00059339
6 *561:B1 0
7 *577:A 0
8 *535:X 0
9 *89:79 0.000693167
10 *89:65 0.000759221
11 *89:37 0.00129515
12 *89:29 0.00154609
13 *89:22 0.00152375
14 *89:6 0.00110501
15 *547:B1 *95:6 3.48705e-05
16 *547:B1 *95:12 0.000154027
17 *557:B1 *558:A1 5.52238e-05
18 *557:B1 *562:A 0.000152267
19 *557:B1 *562:B 0
20 *557:B1 *94:44 0
21 *573:B1 *516:A_N 5.80706e-06
22 *573:B1 *535:A 0
23 *573:B1 *570:B1 5.52302e-05
24 *573:B1 *609:A 0
25 *573:B1 *129:10 9.16166e-05
26 *89:22 *516:A_N 5.33978e-05
27 *89:22 *516:B 0
28 *89:22 *537:A 0
29 *89:22 *577:B 2.88018e-06
30 *89:22 *111:8 0
31 *89:22 *114:34 0.000144856
32 *89:22 *129:27 0.00040279
33 *89:22 *129:38 0.000214198
34 *89:29 *520:A1 0.000123563
35 *89:29 *577:B 3.05446e-05
36 *89:37 *562:B 0
37 *89:37 *578:A1 0
38 *89:37 *613:A 0.000238498
39 *89:37 *90:42 0
40 *89:37 *92:10 0
41 *89:37 *104:69 0
42 *89:37 *105:10 0.000170228
43 *89:37 *129:84 0
44 *89:65 *93:6 1.15172e-05
45 *89:65 *129:105 5.33005e-05
46 *89:79 *578:A1 0.000150625
47 *89:79 *578:A2 0.000148911
48 *89:79 *104:34 0.00144648
49 *89:79 *107:21 0
50 *89:79 *114:34 0.000252776
51 *555:B *557:B1 0.00012595
52 *557:A2 *557:B1 0.00010096
53 *558:A2 *557:B1 0.000203928
54 *558:A2 *89:37 0.00011891
55 *561:A1 *557:B1 1.21289e-05
56 *561:A2 *557:B1 0
57 *565:A1 *557:B1 7.8613e-05
58 *565:A1 *89:37 6.7027e-05
59 *573:A1 *573:B1 5.52302e-05
60 *577:C *89:29 6.28499e-05
61 *579:C *89:65 1.95435e-05
62 *581:C *547:B1 6.33584e-05
63 *593:D *547:B1 0.00010096
64 *601:D *89:29 5.52238e-05
65 *602:D *89:65 5.52302e-05
66 *603:D *547:B1 2.89016e-05
67 *605:A *89:22 3.34672e-05
68 *56:38 *89:37 5.58941e-05
69 *78:48 *89:37 0.000148911
70 *80:12 *573:B1 2.70591e-05
71 *80:25 *573:B1 0.000173854
*RES
1 *535:X *89:6 13.8 
2 *89:6 *89:22 27.5357 
3 *89:22 *577:A 9.3 
4 *89:22 *89:29 10.8036 
5 *89:29 *89:37 22.4107 
6 *89:37 *561:B1 9.3 
7 *89:37 *557:B1 29.3714 
8 *89:29 *89:65 3 
9 *89:65 *89:79 35.5714 
10 *89:79 *581:A 9.3 
11 *89:79 *547:B1 13.1393 
12 *89:65 *579:A 9.3 
13 *89:6 *573:B1 19.925 
*END

*D_NET *90 0.0107113
*CONN
*I *552:B1 I *D sky130_fd_sc_hd__a31oi_1
*I *583:B1 I *D sky130_fd_sc_hd__a21oi_1
*I *565:B1 I *D sky130_fd_sc_hd__a31oi_1
*I *575:C1 I *D sky130_fd_sc_hd__a211o_1
*I *569:B1 I *D sky130_fd_sc_hd__a31oi_1
*I *536:Y O *D sky130_fd_sc_hd__nand2_2
*CAP
1 *552:B1 0
2 *583:B1 0.000650485
3 *565:B1 0
4 *575:C1 3.64675e-05
5 *569:B1 0
6 *536:Y 3.26963e-05
7 *90:59 0.00273905
8 *90:42 0.00310517
9 *90:21 0.0011745
10 *90:6 0.000154123
11 *575:C1 *566:A1 0
12 *583:B1 *549:A_N 5.52302e-05
13 *583:B1 *552:A1 3.22325e-05
14 *583:B1 *583:A1 5.33005e-05
15 *583:B1 *604:CLK 4.01768e-05
16 *583:B1 *94:25 0.000140252
17 *583:B1 *109:12 4.42546e-05
18 *90:6 *128:16 4.01768e-05
19 *90:42 *566:A1 0.000223564
20 *90:42 *99:16 0.000452617
21 *90:42 *99:38 0.000174232
22 *90:42 *104:69 6.15167e-05
23 *90:59 *552:A1 1.10632e-05
24 *90:59 *94:25 9.59532e-06
25 *90:59 *104:69 6.37883e-06
26 *552:A2 *583:B1 8.452e-05
27 *565:A2 *90:42 2.88018e-06
28 *569:A1 *90:21 0.000142305
29 *569:A1 *90:42 4.27935e-05
30 *569:A3 *90:21 7.80714e-06
31 *569:A3 *90:42 0.000310292
32 *575:A1 *575:C1 3.99614e-06
33 *575:A1 *90:21 1.92905e-05
34 *575:A1 *90:42 8.71761e-05
35 *575:A2 *90:21 0
36 *583:A2 *583:B1 4.46186e-06
37 *597:D *90:42 0.000356015
38 *598:D *90:21 0.000104974
39 *604:D *583:B1 0.000181083
40 *60:23 *90:21 0
41 *60:55 *90:42 2.14658e-05
42 *69:8 *90:6 8.07313e-05
43 *69:8 *90:21 2.44318e-05
44 *89:37 *90:42 0
*RES
1 *536:Y *90:6 10.6571 
2 *90:6 *569:B1 9.3 
3 *90:6 *90:21 12.3214 
4 *90:21 *575:C1 10.0321 
5 *90:21 *90:42 22.4821 
6 *90:42 *565:B1 13.8 
7 *90:42 *90:59 11.6004 
8 *90:59 *583:B1 33.9071 
9 *90:59 *552:B1 13.8 
*END

*D_NET *91 0.00776322
*CONN
*I *577:B I *D sky130_fd_sc_hd__and3_1
*I *550:D I *D sky130_fd_sc_hd__or4_1
*I *553:A4 I *D sky130_fd_sc_hd__o41a_1
*I *567:D I *D sky130_fd_sc_hd__or4_1
*I *570:A4 I *D sky130_fd_sc_hd__o41a_1
*I *537:Y O *D sky130_fd_sc_hd__nand2_1
*CAP
1 *577:B 0.000228453
2 *550:D 0.000244388
3 *553:A4 0
4 *567:D 0
5 *570:A4 0.000398633
6 *537:Y 0
7 *91:42 0.00198187
8 *91:23 0.00176219
9 *91:10 0.000630611
10 *91:4 0.000435716
11 *550:D *611:A 5.74562e-05
12 *550:D *107:34 6.42338e-05
13 *550:D *107:49 2.49484e-05
14 *550:D *109:22 5.59013e-05
15 *550:D *114:24 0.000197558
16 *570:A4 *570:A3 0.000435578
17 *570:A4 *570:B1 1.04232e-05
18 *570:A4 *132:62 1.21258e-05
19 *570:A4 *132:66 1.21258e-05
20 *577:B *129:38 3.47797e-05
21 *577:B *135:61 4.18895e-05
22 *91:10 *99:10 0
23 *91:10 *129:53 0
24 *91:10 *132:84 0.000263584
25 *91:10 *135:37 3.26129e-05
26 *91:10 *135:61 0.00010096
27 *91:23 *559:B 0
28 *91:23 *99:10 0
29 *91:23 *132:84 4.90803e-05
30 *91:42 *559:B 0
31 *91:42 *113:18 0.000503056
32 *91:42 *132:84 2.31791e-05
33 *91:42 *133:24 1.90936e-05
34 *572:A1 *550:D 9.60875e-05
35 *573:A3 *570:A4 1.32552e-05
36 *89:22 *577:B 2.88018e-06
37 *89:29 *577:B 3.05446e-05
*RES
1 *537:Y *91:4 9.3 
2 *91:4 *91:10 8.91071 
3 *91:10 *570:A4 19.5857 
4 *91:10 *91:23 0.732143 
5 *91:23 *567:D 13.8 
6 *91:23 *91:42 16.2599 
7 *91:42 *553:A4 9.3 
8 *91:42 *550:D 23.55 
9 *91:4 *577:B 12.3 
*END

*D_NET *92 0.00282967
*CONN
*I *560:B2 I *D sky130_fd_sc_hd__a32o_1
*I *564:A1 I *D sky130_fd_sc_hd__a21o_1
*I *538:X O *D sky130_fd_sc_hd__and3_1
*CAP
1 *560:B2 1.44544e-05
2 *564:A1 0.000203591
3 *538:X 0.000526917
4 *92:10 0.000744963
5 *564:A1 *564:B1 7.60956e-05
6 *564:A1 *104:69 0.000168939
7 *92:10 *613:A 0
8 *92:10 *104:10 0
9 *92:10 *104:14 0
10 *92:10 *104:69 0
11 *92:10 *135:10 4.16383e-05
12 *565:A2 *564:A1 3.14193e-05
13 *565:A3 *564:A1 5.71472e-05
14 *597:D *564:A1 0.000272371
15 *56:10 *564:A1 1.76039e-05
16 *56:34 *560:B2 9.90431e-05
17 *56:34 *564:A1 0.000225609
18 *60:49 *564:A1 0
19 *60:55 *564:A1 3.57366e-05
20 *60:74 *560:B2 8.66063e-05
21 *60:74 *564:A1 0.000227532
22 *78:48 *92:10 0
23 *89:37 *92:10 0
*RES
1 *538:X *92:10 26.3179 
2 *92:10 *564:A1 25.7464 
3 *92:10 *560:B2 10.2464 
*END

*D_NET *93 0.00295842
*CONN
*I *580:B I *D sky130_fd_sc_hd__nand2_1
*I *579:B I *D sky130_fd_sc_hd__and3_1
*I *562:B I *D sky130_fd_sc_hd__or3b_1
*I *539:Y O *D sky130_fd_sc_hd__nand3_1
*CAP
1 *580:B 0.000285818
2 *579:B 0
3 *562:B 0.000613791
4 *539:Y 0
5 *93:6 0.000756098
6 *93:4 0.000428125
7 *562:B *556:B_N 0
8 *562:B *560:A2 0
9 *562:B *94:44 0
10 *562:B *98:10 0
11 *562:B *115:14 0
12 *562:B *129:84 0.000162545
13 *580:B *541:A 0.000139913
14 *580:B *541:D 5.1004e-05
15 *580:B *129:105 4.86324e-05
16 *580:B *129:116 0.00040381
17 *93:6 *129:105 4.35567e-05
18 *557:B1 *562:B 0
19 *561:A2 *562:B 5.80706e-06
20 *565:A1 *562:B 7.80714e-06
21 *56:38 *562:B 0
22 *89:37 *562:B 0
23 *89:65 *93:6 1.15172e-05
*RES
1 *539:Y *93:4 9.3 
2 *93:4 *93:6 1.76786 
3 *93:6 *562:B 28.1393 
4 *93:6 *579:B 9.3 
5 *93:4 *580:B 16.3357 
*END

*D_NET *94 0.00733998
*CONN
*I *548:A1 I *D sky130_fd_sc_hd__a21o_1
*I *551:B I *D sky130_fd_sc_hd__nand3_1
*I *555:A I *D sky130_fd_sc_hd__and2_1
*I *560:A2 I *D sky130_fd_sc_hd__a32o_1
*I *558:A1 I *D sky130_fd_sc_hd__a21oi_1
*I *546:B1 I *D sky130_fd_sc_hd__o2111a_1
*I *540:X O *D sky130_fd_sc_hd__and2b_1
*CAP
1 *548:A1 0.000129989
2 *551:B 0
3 *555:A 0
4 *560:A2 0.00043223
5 *558:A1 7.78485e-05
6 *546:B1 0.000426831
7 *540:X 6.59684e-05
8 *94:44 0.000553889
9 *94:33 0.00118546
10 *94:27 0.00098595
11 *94:25 0.000393194
12 *94:8 0.000756004
13 *546:B1 *505:A 0.00010096
14 *546:B1 *543:A1 6.58289e-05
15 *546:B1 *546:C1 3.77662e-05
16 *546:B1 *132:10 4.38511e-05
17 *546:B1 *132:36 2.78729e-05
18 *548:A1 *548:B1 9.71197e-05
19 *548:A1 *551:C 4.78056e-05
20 *548:A1 *552:A1 2.6809e-05
21 *558:A1 *558:B1 0.00014285
22 *560:A2 *562:A 0.000230475
23 *560:A2 *115:14 5.59013e-05
24 *94:8 *549:A_N 9.90367e-05
25 *94:25 *551:C 4.46186e-06
26 *94:25 *552:A1 2.30116e-06
27 *94:25 *604:CLK 0
28 *94:33 *552:A1 2.89016e-05
29 *94:33 *558:B1 0.000139907
30 *94:44 *115:14 0.000221802
31 *546:A1 *546:B1 0.000167333
32 *546:A2 *546:B1 0
33 *551:A *94:33 9.17416e-05
34 *552:A2 *94:25 0
35 *552:A3 *94:33 5.38388e-05
36 *555:B *560:A2 0.000237252
37 *557:B1 *558:A1 5.52238e-05
38 *557:B1 *94:44 0
39 *561:A1 *558:A1 5.17614e-05
40 *562:B *560:A2 0
41 *562:B *94:44 0
42 *562:C_N *560:A2 1.39841e-05
43 *583:B1 *94:25 0.000140252
44 *594:D *94:33 0.000137983
45 *604:D *94:25 0
46 *78:12 *546:B1 0
47 *90:59 *94:25 9.59532e-06
*RES
1 *540:X *94:8 14.7464 
2 *94:8 *546:B1 23.05 
3 *94:8 *94:25 4.67857 
4 *94:25 *94:27 4.5 
5 *94:27 *94:33 16.6964 
6 *94:33 *558:A1 11.4786 
7 *94:33 *94:44 7.35714 
8 *94:44 *560:A2 20.425 
9 *94:44 *555:A 13.8 
10 *94:27 *551:B 9.3 
11 *94:25 *548:A1 16.0857 
*END

*D_NET *95 0.00234464
*CONN
*I *581:B I *D sky130_fd_sc_hd__and3_1
*I *542:B I *D sky130_fd_sc_hd__or2_1
*I *582:B I *D sky130_fd_sc_hd__nand2_1
*I *543:A2 I *D sky130_fd_sc_hd__o21a_1
*I *541:Y O *D sky130_fd_sc_hd__nand4_1
*CAP
1 *581:B 0
2 *542:B 0.000137249
3 *582:B 0
4 *543:A2 0
5 *541:Y 0.000125473
6 *95:23 0.000362116
7 *95:12 0.000554959
8 *95:6 0.000455565
9 *542:B *543:A1 1.17968e-05
10 *542:B *132:10 6.5185e-05
11 *542:B *132:36 4.35131e-05
12 *95:6 *541:A 3.18676e-05
13 *95:12 *543:A1 5.52302e-05
14 *95:12 *547:A1 3.18676e-05
15 *95:23 *543:A1 0.000189342
16 *547:B1 *95:6 3.48705e-05
17 *547:B1 *95:12 0.000154027
18 *581:C *95:6 2.87555e-06
19 *583:A2 *542:B 0
20 *593:D *95:12 8.87008e-05
21 *604:D *542:B 0
*RES
1 *541:Y *95:6 11.0679 
2 *95:6 *95:12 6.73214 
3 *95:12 *543:A2 9.3 
4 *95:12 *95:23 9.10714 
5 *95:23 *582:B 13.8 
6 *95:23 *542:B 16.6571 
7 *95:6 *581:B 9.3 
*END

*D_NET *96 0.00030653
*CONN
*I *583:A1 I *D sky130_fd_sc_hd__a21oi_1
*I *542:X O *D sky130_fd_sc_hd__or2_1
*CAP
1 *583:A1 3.35333e-05
2 *542:X 3.35333e-05
3 *583:A1 *542:A 0.000138881
4 *583:A1 *549:A_N 4.72818e-05
5 *583:B1 *583:A1 5.33005e-05
*RES
1 *542:X *583:A1 19.9571 
*END

*D_NET *97 0.000104357
*CONN
*I *547:A1 I *D sky130_fd_sc_hd__o21a_1
*I *543:X O *D sky130_fd_sc_hd__o21a_1
*CAP
1 *547:A1 7.67105e-06
2 *543:X 7.67105e-06
3 *593:D *547:A1 5.71472e-05
4 *95:12 *547:A1 3.18676e-05
*RES
1 *543:X *547:A1 19.1357 
*END

*D_NET *98 0.00124227
*CONN
*I *556:B_N I *D sky130_fd_sc_hd__and4bb_1
*I *572:A2 I *D sky130_fd_sc_hd__o211a_1
*I *544:X O *D sky130_fd_sc_hd__and2b_1
*CAP
1 *556:B_N 0.000184742
2 *572:A2 0
3 *544:X 0.000119322
4 *98:10 0.000304064
5 *556:B_N *107:55 0.000184745
6 *556:B_N *115:14 5.59013e-05
7 *98:10 *133:24 5.71472e-05
8 *556:C *556:B_N 0.000117581
9 *562:B *556:B_N 0
10 *562:B *98:10 0
11 *52:10 *556:B_N 5.80706e-06
12 *52:10 *98:10 6.42338e-05
13 *78:48 *556:B_N 0.00014873
*RES
1 *544:X *98:10 15.9786 
2 *98:10 *572:A2 13.8 
3 *98:10 *556:B_N 18.7286 
*END

*D_NET *99 0.0104125
*CONN
*I *548:A2 I *D sky130_fd_sc_hd__a21o_1
*I *551:C I *D sky130_fd_sc_hd__nand3_1
*I *563:A I *D sky130_fd_sc_hd__nand2_1
*I *568:B I *D sky130_fd_sc_hd__nand3_1
*I *566:A1 I *D sky130_fd_sc_hd__a21o_1
*I *545:X O *D sky130_fd_sc_hd__and3b_1
*CAP
1 *548:A2 2.28999e-05
2 *551:C 7.6325e-05
3 *563:A 0
4 *568:B 1.20576e-05
5 *566:A1 9.04961e-05
6 *545:X 0.000575722
7 *99:69 0.00211672
8 *99:38 0.00208757
9 *99:16 0.000232973
10 *99:10 0.000776223
11 *548:A2 *548:B1 5.52302e-05
12 *548:A2 *604:CLK 9.87983e-06
13 *548:A2 *104:94 5.52302e-05
14 *551:C *604:CLK 6.63656e-05
15 *99:10 *559:B 7.75022e-05
16 *99:10 *107:55 0.000196269
17 *99:10 *129:53 0
18 *99:69 *509:A 0.000327461
19 *99:69 *511:A 4.38128e-05
20 *99:69 *552:A1 5.52302e-05
21 *99:69 *104:78 0.000159219
22 *99:69 *104:86 0.000425491
23 *99:69 *104:94 0.000551574
24 *99:69 *114:54 0.000405733
25 *548:A1 *551:C 4.78056e-05
26 *568:C *99:16 0.000429527
27 *568:C *99:38 4.59075e-05
28 *575:A1 *566:A1 9.3111e-05
29 *575:A1 *568:B 1.04232e-05
30 *575:C1 *566:A1 0
31 *595:D *99:69 8.42801e-05
32 *596:D *99:69 0.000128093
33 *597:D *99:69 7.48418e-05
34 *56:10 *99:10 0
35 *60:10 *99:10 5.84171e-05
36 *60:49 *99:10 0
37 *60:49 *99:38 5.59013e-05
38 *60:49 *99:69 1.02504e-05
39 *60:55 *99:16 0
40 *60:55 *99:38 9.90367e-05
41 *90:42 *566:A1 0.000223564
42 *90:42 *99:16 0.000452617
43 *90:42 *99:38 0.000174232
44 *91:10 *99:10 0
45 *91:23 *99:10 0
46 *94:25 *551:C 4.46186e-06
*RES
1 *545:X *99:10 28.4429 
2 *99:10 *99:16 6.42857 
3 *99:16 *566:A1 11.9071 
4 *99:16 *568:B 9.72857 
5 *99:10 *99:38 7 
6 *99:38 *563:A 13.8 
7 *99:38 *99:69 42.8125 
8 *99:69 *551:C 15.5946 
9 *99:69 *548:A2 14.6125 
*END

*D_NET *100 0.000278127
*CONN
*I *547:A2 I *D sky130_fd_sc_hd__o21a_1
*I *546:X O *D sky130_fd_sc_hd__o2111a_1
*CAP
1 *547:A2 0.000111452
2 *546:X 0.000111452
3 *547:A2 *505:A 5.52238e-05
4 *547:A2 *543:A1 0
*RES
1 *546:X *547:A2 29.1714 
*END

*D_NET *101 0.00054243
*CONN
*I *552:A1 I *D sky130_fd_sc_hd__a31oi_1
*I *548:X O *D sky130_fd_sc_hd__a21o_1
*CAP
1 *552:A1 0.00015545
2 *548:X 0.00015545
3 *548:A1 *552:A1 2.6809e-05
4 *552:A2 *552:A1 1.7845e-05
5 *552:A3 *552:A1 5.71472e-05
6 *583:B1 *552:A1 3.22325e-05
7 *90:59 *552:A1 1.10632e-05
8 *94:25 *552:A1 2.30116e-06
9 *94:33 *552:A1 2.89016e-05
10 *99:69 *552:A1 5.52302e-05
*RES
1 *548:X *552:A1 30.6179 
*END

*D_NET *102 0.00274119
*CONN
*I *607:A I *D sky130_fd_sc_hd__clkbuf_16
*I *606:A I *D sky130_fd_sc_hd__clkbuf_16
*I *605:X O *D sky130_fd_sc_hd__clkbuf_16
*CAP
1 *607:A 2.45801e-05
2 *606:A 0.000641134
3 *605:X 0
4 *102:4 0.000665714
5 *606:A *107:55 0.000122091
6 *606:A *115:14 0.00100725
7 *607:A *107:55 0.000105163
8 *607:A *115:14 0.000175251
*RES
1 *605:X *102:4 9.3 
2 *102:4 *606:A 23.9429 
3 *102:4 *607:A 11.0679 
*END

*D_NET *103 0.0139207
*CONN
*I *600:CLK I *D sky130_fd_sc_hd__dfxtp_1
*I *591:CLK I *D sky130_fd_sc_hd__dfxtp_1
*I *592:CLK I *D sky130_fd_sc_hd__dfxtp_1
*I *588:CLK I *D sky130_fd_sc_hd__dfxtp_1
*I *586:CLK I *D sky130_fd_sc_hd__dfxtp_1
*I *585:CLK I *D sky130_fd_sc_hd__dfxtp_1
*I *590:CLK I *D sky130_fd_sc_hd__dfxtp_1
*I *589:CLK I *D sky130_fd_sc_hd__dfxtp_1
*I *599:CLK I *D sky130_fd_sc_hd__dfxtp_1
*I *598:CLK I *D sky130_fd_sc_hd__dfxtp_1
*I *515:A I *D sky130_fd_sc_hd__inv_2
*I *587:CLK I *D sky130_fd_sc_hd__dfxtp_1
*I *606:X O *D sky130_fd_sc_hd__clkbuf_16
*CAP
1 *600:CLK 2.00462e-05
2 *591:CLK 0.000351768
3 *592:CLK 0
4 *588:CLK 0.000134715
5 *586:CLK 0
6 *585:CLK 0.000297262
7 *590:CLK 0
8 *589:CLK 0
9 *599:CLK 4.81142e-05
10 *598:CLK 0.000715633
11 *515:A 0.000279867
12 *587:CLK 0
13 *606:X 0.000176232
14 *103:92 0.000588793
15 *103:90 0.000725966
16 *103:86 0.000700455
17 *103:82 0.000877309
18 *103:80 0.000753267
19 *103:71 0.000736733
20 *103:60 0.000263179
21 *103:25 0.000995499
22 *103:23 0.000496413
23 *103:14 0.000649145
24 *103:8 0.000511941
25 *515:A *535:A 1.76039e-05
26 *515:A *584:CLK 1.72079e-05
27 *515:A *120:26 1.30681e-05
28 *515:A *136:116 4.46338e-05
29 *585:CLK *520:A1 2.69614e-05
30 *585:CLK *623:A 0
31 *585:CLK *647:A 0.000334921
32 *585:CLK *130:33 0
33 *588:CLK *531:A 8.07313e-05
34 *588:CLK *531:B 2.89114e-05
35 *588:CLK *650:A 0.00024426
36 *591:CLK *624:A 3.57163e-05
37 *591:CLK *646:A 0
38 *591:CLK *136:64 7.65519e-05
39 *598:CLK *508:A 0
40 *598:CLK *528:A1 0.000103004
41 *598:CLK *636:A 0
42 *598:CLK *644:A 0
43 *598:CLK *120:26 0.000161675
44 *598:CLK *128:16 0
45 *103:14 *618:A 0
46 *103:14 *120:26 2.27416e-05
47 *103:23 *113:18 0.000166636
48 *103:23 *120:26 0.000232455
49 *103:80 *530:C1 0.000270326
50 *103:80 *532:A1 0.000185118
51 *103:80 *590:D 1.64343e-05
52 *103:86 *119:8 9.60875e-05
53 *103:90 *533:B 0
54 *103:90 *130:33 0
55 *103:92 *113:18 0
56 *103:92 *130:33 0
57 *520:A2 *585:CLK 5.57345e-05
58 *520:A2 *103:92 4.1331e-06
59 *524:A2 *515:A 8.58577e-06
60 *524:B1 *103:14 6.75007e-05
61 *527:B *103:80 5.52238e-05
62 *528:B1 *103:80 0.000314132
63 *529:B *103:60 9.88136e-05
64 *529:B *103:71 7.15591e-05
65 *530:A2 *103:80 0
66 *534:B1 *103:90 0
67 *585:D *585:CLK 0.000247966
68 *591:D *591:CLK 0.000128755
69 *598:D *598:CLK 0.000128086
70 *599:D *515:A 2.4461e-05
71 *599:D *598:CLK 5.33978e-05
72 *599:D *599:CLK 3.3283e-05
73 *599:D *103:23 8.95121e-05
74 *600:D *600:CLK 1.02132e-05
75 *600:D *103:80 0.000504935
76 *600:D *103:82 0.000114217
77 *619:A *103:71 5.7616e-05
78 *79:10 *103:14 7.92975e-05
79 *79:19 *103:14 0.000113877
80 *79:19 *103:60 1.52978e-05
81 *79:23 *103:8 9.71197e-05
82 *80:8 *515:A 0
83 *80:12 *515:A 0
84 *80:25 *515:A 0
85 *80:44 *598:CLK 0
86 *80:62 *103:71 1.02504e-05
87 *80:62 *103:80 3.93247e-05
*RES
1 *606:X *103:8 16.8 
2 *103:8 *103:14 9.71429 
3 *103:14 *587:CLK 9.3 
4 *103:14 *103:23 8.76786 
5 *103:23 *103:25 4.5 
6 *103:25 *515:A 17.8982 
7 *103:25 *598:CLK 28.4607 
8 *103:23 *599:CLK 10.2643 
9 *103:8 *103:60 2.85714 
10 *103:60 *589:CLK 13.8 
11 *103:60 *103:71 7.05357 
12 *103:71 *590:CLK 9.3 
13 *103:71 *103:80 14.9286 
14 *103:80 *103:82 2.17857 
15 *103:82 *103:86 6.19643 
16 *103:86 *103:90 9.48214 
17 *103:90 *103:92 4.98214 
18 *103:92 *585:CLK 21.6036 
19 *103:92 *586:CLK 13.8 
20 *103:90 *588:CLK 18.0321 
21 *103:86 *592:CLK 9.3 
22 *103:82 *591:CLK 25.3 
23 *103:80 *600:CLK 9.72857 
*END

*D_NET *104 0.0155684
*CONN
*I *596:CLK I *D sky130_fd_sc_hd__dfxtp_1
*I *595:CLK I *D sky130_fd_sc_hd__dfxtp_1
*I *594:CLK I *D sky130_fd_sc_hd__dfxtp_1
*I *604:CLK I *D sky130_fd_sc_hd__dfxtp_1
*I *597:CLK I *D sky130_fd_sc_hd__dfxtp_1
*I *608:A I *D sky130_fd_sc_hd__clkinvlp_4
*I *593:CLK I *D sky130_fd_sc_hd__dfxtp_2
*I *603:CLK I *D sky130_fd_sc_hd__dfxtp_2
*I *602:CLK I *D sky130_fd_sc_hd__dfxtp_1
*I *601:CLK I *D sky130_fd_sc_hd__dfxtp_1
*I *607:X O *D sky130_fd_sc_hd__clkbuf_16
*CAP
1 *596:CLK 0
2 *595:CLK 0
3 *594:CLK 0
4 *604:CLK 0.000294016
5 *597:CLK 5.96677e-05
6 *608:A 0
7 *593:CLK 0.000314173
8 *603:CLK 2.23854e-05
9 *602:CLK 2.23854e-05
10 *601:CLK 0.00032268
11 *607:X 0.00027225
12 *104:94 0.000901936
13 *104:86 0.00104287
14 *104:78 0.000621754
15 *104:69 0.000692295
16 *104:34 0.000898601
17 *104:25 0.000707292
18 *104:14 0.000869248
19 *104:10 0.000553526
20 *104:8 0.000847896
21 *593:CLK *520:A1 0
22 *593:CLK *107:10 0.000621848
23 *593:CLK *112:10 0
24 *597:CLK *509:A 8.41504e-05
25 *601:CLK *114:34 0.000184276
26 *604:CLK *109:12 5.33433e-05
27 *104:8 *115:14 0.000219828
28 *104:14 *105:10 0
29 *104:25 *105:10 0.000363837
30 *104:25 *114:34 0.000145807
31 *104:34 *106:10 0.000536146
32 *104:34 *107:10 0.000536146
33 *104:34 *114:34 3.78513e-05
34 *104:69 *564:B1 4.78056e-05
35 *104:69 *643:A 3.25078e-05
36 *104:78 *509:A 4.27935e-05
37 *104:94 *511:A 5.52302e-05
38 *104:94 *548:B1 7.51327e-05
39 *104:94 *114:54 0.00040381
40 *548:A2 *604:CLK 9.87983e-06
41 *548:A2 *104:94 5.52302e-05
42 *551:C *604:CLK 6.63656e-05
43 *564:A1 *104:69 0.000168939
44 *583:B1 *604:CLK 4.01768e-05
45 *594:D *604:CLK 0.000101545
46 *595:D *104:94 8.42801e-05
47 *596:D *104:86 0.000128093
48 *597:D *104:69 0
49 *601:D *601:CLK 1.64343e-05
50 *602:D *104:34 8.95186e-05
51 *603:D *593:CLK 8.95186e-05
52 *56:10 *104:10 5.21653e-05
53 *56:10 *104:14 4.48113e-05
54 *56:10 *104:69 8.72701e-05
55 *89:37 *104:69 0
56 *89:79 *104:34 0.00144648
57 *90:42 *104:69 6.15167e-05
58 *90:59 *104:69 6.37883e-06
59 *92:10 *104:10 0
60 *92:10 *104:14 0
61 *92:10 *104:69 0
62 *94:25 *604:CLK 0
63 *99:69 *104:78 0.000159219
64 *99:69 *104:86 0.000425491
65 *99:69 *104:94 0.000551574
*RES
1 *607:X *104:8 17.6214 
2 *104:8 *104:10 2.25 
3 *104:10 *104:14 11 
4 *104:14 *601:CLK 15.6036 
5 *104:14 *104:25 4.64286 
6 *104:25 *602:CLK 9.72857 
7 *104:25 *104:34 17.7857 
8 *104:34 *603:CLK 9.72857 
9 *104:34 *593:CLK 26.1214 
10 *104:10 *608:A 13.8 
11 *104:8 *104:69 13.4821 
12 *104:69 *597:CLK 10.6571 
13 *104:69 *104:78 4.23214 
14 *104:78 *104:86 10.5536 
15 *104:86 *104:94 15.0714 
16 *104:94 *604:CLK 24.2286 
17 *104:94 *594:CLK 9.3 
18 *104:86 *595:CLK 9.3 
19 *104:78 *596:CLK 9.3 
*END

*D_NET *105 0.00768249
*CONN
*I *613:A I *D sky130_fd_sc_hd__buf_2
*I *505:A I *D sky130_fd_sc_hd__inv_2
*I *549:C I *D sky130_fd_sc_hd__and4bb_1
*I *578:A2 I *D sky130_fd_sc_hd__a21o_1
*I *601:Q O *D sky130_fd_sc_hd__dfxtp_1
*CAP
1 *613:A 0.000131896
2 *505:A 0.000711994
3 *549:C 4.48868e-05
4 *578:A2 0.000262236
5 *601:Q 0.000392878
6 *105:27 0.0011758
7 *105:14 0.000975459
8 *105:10 0.000819082
9 *505:A *504:A 1.56e-05
10 *505:A *546:C1 9.70217e-05
11 *505:A *134:14 4.33174e-05
12 *549:C *134:14 5.52238e-05
13 *578:A2 *578:A1 0.000122407
14 *578:A2 *578:B1 0.000186641
15 *578:A2 *129:84 6.61059e-05
16 *578:A2 *134:20 6.1644e-05
17 *613:A *135:10 6.42338e-05
18 *105:10 *578:A1 0
19 *105:14 *133:24 0.000207766
20 *105:27 *133:24 4.43256e-05
21 *105:27 *134:14 9.40071e-05
22 *105:27 *134:20 0.000227532
23 *546:A1 *505:A 0.000505667
24 *546:B1 *505:A 0.00010096
25 *547:A2 *505:A 5.52238e-05
26 *602:D *105:10 2.56694e-05
27 *76:8 *505:A 0.00027344
28 *89:37 *613:A 0.000238498
29 *89:37 *105:10 0.000170228
30 *89:79 *578:A2 0.000148911
31 *92:10 *613:A 0
32 *104:14 *105:10 0
33 *104:25 *105:10 0.000363837
*RES
1 *601:Q *105:10 20.675 
2 *105:10 *105:14 8.32143 
3 *105:14 *578:A2 25.1036 
4 *105:14 *105:27 5.875 
5 *105:27 *549:C 10.5679 
6 *105:27 *505:A 23.9786 
7 *105:10 *613:A 16.9607 
*END

*D_NET *106 0.00306138
*CONN
*I *611:A I *D sky130_fd_sc_hd__buf_2
*I *612:A I *D sky130_fd_sc_hd__buf_1
*I *602:Q O *D sky130_fd_sc_hd__dfxtp_1
*CAP
1 *611:A 0.000281813
2 *612:A 0
3 *602:Q 0.000632035
4 *106:10 0.000913848
5 *611:A *549:A_N 0.000176437
6 *611:A *107:21 0
7 *611:A *107:34 0
8 *611:A *109:22 0.000220448
9 *106:10 *549:A_N 2.39654e-05
10 *106:10 *107:10 0
11 *106:10 *107:21 0
12 *106:10 *114:30 0
13 *550:D *611:A 5.74562e-05
14 *557:A3 *611:A 0.000174797
15 *580:A *106:10 4.4432e-05
16 *104:34 *106:10 0.000536146
*RES
1 *602:Q *106:10 23.2286 
2 *106:10 *612:A 13.8 
3 *106:10 *611:A 20.9071 
*END

*D_NET *107 0.0151926
*CONN
*I *556:D I *D sky130_fd_sc_hd__and4bb_1
*I *567:B I *D sky130_fd_sc_hd__or4_1
*I *518:A I *D sky130_fd_sc_hd__or4b_4
*I *517:A I *D sky130_fd_sc_hd__nor4b_1
*I *570:A2 I *D sky130_fd_sc_hd__o41a_1
*I *559:B I *D sky130_fd_sc_hd__nor2_2
*I *540:B I *D sky130_fd_sc_hd__and2b_1
*I *504:A I *D sky130_fd_sc_hd__inv_2
*I *541:B I *D sky130_fd_sc_hd__nand4_1
*I *603:Q O *D sky130_fd_sc_hd__dfxtp_2
*CAP
1 *556:D 0
2 *567:B 0
3 *518:A 8.21614e-06
4 *517:A 4.05093e-05
5 *570:A2 9.27009e-05
6 *559:B 4.24496e-05
7 *540:B 0.000403899
8 *504:A 4.0729e-05
9 *541:B 0.000149315
10 *603:Q 0.000829671
11 *107:83 0.000368693
12 *107:70 0.000627523
13 *107:68 0.000475325
14 *107:55 0.00184843
15 *107:49 0.00182731
16 *107:34 0.000878495
17 *107:21 0.000479899
18 *107:10 0.00122536
19 *504:A *546:C1 5.52302e-05
20 *504:A *134:8 0
21 *504:A *134:14 0
22 *517:A *517:B 0.000272371
23 *517:A *517:D_N 0.000232399
24 *518:A *517:B 5.52302e-05
25 *518:A *517:D_N 4.38128e-05
26 *540:B *541:C 0.000181796
27 *540:B *132:38 0.00035582
28 *541:B *541:D 4.59075e-05
29 *107:21 *541:C 0
30 *107:34 *541:C 0
31 *107:34 *132:46 0.000173804
32 *107:49 *549:A_N 0.000263524
33 *107:49 *109:22 1.46624e-05
34 *107:49 *114:24 0
35 *107:49 *132:46 5.59013e-05
36 *107:49 *133:106 8.43535e-06
37 *107:55 *109:22 7.49387e-06
38 *107:55 *115:14 0.000222893
39 *107:55 *133:106 3.69047e-06
40 *107:83 *609:A 0
41 *107:83 *111:8 0
42 *505:A *504:A 1.56e-05
43 *550:D *107:34 6.42338e-05
44 *550:D *107:49 2.49484e-05
45 *556:B_N *107:55 0.000184745
46 *556:C *107:55 7.65804e-05
47 *569:A2 *107:70 5.33005e-05
48 *569:A2 *107:83 3.17148e-05
49 *573:A3 *570:A2 0.00014285
50 *573:A3 *107:68 0.000388424
51 *573:A3 *107:70 0.00021751
52 *581:C *541:B 0.000144773
53 *581:C *107:21 2.67601e-05
54 *593:CLK *107:10 0.000621848
55 *605:A *107:83 0.000188571
56 *606:A *107:55 0.000122091
57 *607:A *107:55 0.000105163
58 *611:A *107:21 0
59 *611:A *107:34 0
60 *60:10 *559:B 5.31101e-05
61 *60:10 *107:55 0.000188734
62 *76:8 *504:A 6.05161e-06
63 *78:48 *107:55 0.000372737
64 *80:8 *517:A 2.14757e-05
65 *89:79 *107:21 0
66 *91:23 *559:B 0
67 *91:42 *559:B 0
68 *99:10 *559:B 7.75022e-05
69 *99:10 *107:55 0.000196269
70 *104:34 *107:10 0.000536146
71 *106:10 *107:10 0
72 *106:10 *107:21 0
*RES
1 *603:Q *107:10 26.05 
2 *107:10 *541:B 15.9786 
3 *107:10 *107:21 3.76786 
4 *107:21 *504:A 14.7643 
5 *107:21 *107:34 4.07143 
6 *107:34 *540:B 21.7286 
7 *107:34 *107:49 8.83929 
8 *107:49 *107:55 27.3036 
9 *107:55 *559:B 14.8357 
10 *107:55 *107:68 8.32143 
11 *107:68 *107:70 3 
12 *107:70 *570:A2 10.6571 
13 *107:70 *107:83 14.5893 
14 *107:83 *517:A 11.8893 
15 *107:83 *518:A 9.83571 
16 *107:68 *567:B 9.3 
17 *107:49 *556:D 9.3 
*END

*D_NET *108 0.00586408
*CONN
*I *625:A I *D sky130_fd_sc_hd__dlygate4sd3_1
*I *610:A I *D sky130_fd_sc_hd__buf_2
*I *549:A_N I *D sky130_fd_sc_hd__and4bb_1
*I *604:Q O *D sky130_fd_sc_hd__dfxtp_1
*CAP
1 *625:A 0.000170066
2 *610:A 0
3 *549:A_N 0.000845369
4 *604:Q 0
5 *108:12 0.000986598
6 *108:4 0.000311295
7 *549:A_N *541:C 4.27338e-05
8 *549:A_N *542:A 0.000121866
9 *549:A_N *132:8 0.000251803
10 *549:A_N *132:38 0.000964548
11 *549:A_N *133:10 5.83304e-05
12 *549:A_N *133:14 1.81709e-05
13 *549:A_N *133:106 0.000113005
14 *625:A *109:12 0.000127353
15 *108:12 *542:A 0.000176025
16 *108:12 *113:18 6.42338e-05
17 *550:B *549:A_N 7.83587e-05
18 *552:A2 *549:A_N 0.000533203
19 *557:A3 *549:A_N 3.34295e-05
20 *580:A *549:A_N 3.10819e-05
21 *583:A1 *549:A_N 4.72818e-05
22 *583:B1 *549:A_N 5.52302e-05
23 *611:A *549:A_N 0.000176437
24 *76:19 *549:A_N 0.000215234
25 *76:32 *549:A_N 5.59013e-05
26 *94:8 *549:A_N 9.90367e-05
27 *106:10 *549:A_N 2.39654e-05
28 *107:49 *549:A_N 0.000263524
*RES
1 *604:Q *108:4 9.3 
2 *108:4 *108:12 12.4107 
3 *108:12 *549:A_N 43.2643 
4 *108:12 *610:A 9.3 
5 *108:4 *625:A 13.0321 
*END

*D_NET *109 0.0111571
*CONN
*I *514:A I *D sky130_fd_sc_hd__inv_2
*I *556:A_N I *D sky130_fd_sc_hd__and4bb_1
*I *562:A I *D sky130_fd_sc_hd__or3b_1
*I *627:X O *D sky130_fd_sc_hd__buf_1
*CAP
1 *514:A 9.59763e-05
2 *556:A_N 0
3 *562:A 0.000300175
4 *627:X 0.000330648
5 *109:22 0.0010994
6 *109:12 0.00396101
7 *109:10 0.00339646
8 *514:A *114:24 0
9 *562:A *115:14 0
10 *109:10 *631:A 0
11 *109:10 *639:A 2.56694e-05
12 *109:10 *112:40 0
13 *109:22 *114:24 0
14 *109:22 *133:106 0.00018077
15 *550:B *109:22 0.000180777
16 *550:D *109:22 5.59013e-05
17 *552:A2 *514:A 0
18 *555:B *562:A 0.000159692
19 *556:C *109:22 0.000225616
20 *557:A1 *562:A 9.77024e-05
21 *557:A2 *562:A 2.14658e-05
22 *557:A3 *109:22 2.58997e-05
23 *557:B1 *562:A 0.000152267
24 *560:A2 *562:A 0.000230475
25 *583:B1 *109:12 4.42546e-05
26 *595:D *109:22 0
27 *604:CLK *109:12 5.33433e-05
28 *604:D *109:12 1.53273e-05
29 *611:A *109:22 0.000220448
30 *625:A *109:12 0.000127353
31 *78:12 *514:A 7.83659e-05
32 *78:48 *562:A 5.58941e-05
33 *107:49 *109:22 1.46624e-05
34 *107:55 *109:22 7.49387e-06
*RES
1 *627:X *109:10 24.1929 
2 *109:10 *109:12 36.2679 
3 *109:12 *109:22 22.4643 
4 *109:22 *562:A 25.925 
5 *109:22 *556:A_N 9.3 
6 *109:12 *514:A 20.2464 
*END

*D_NET *110 0.00108821
*CONN
*I *629:A I *D sky130_fd_sc_hd__buf_2
*I *533:A I *D sky130_fd_sc_hd__or2_1
*I *592:Q O *D sky130_fd_sc_hd__dfxtp_1
*CAP
1 *629:A 0.000180333
2 *533:A 0
3 *592:Q 0.000301766
4 *110:10 0.000482098
5 adc_out[6] *629:A 0
6 *621:A *629:A 2.31791e-05
7 *621:A *110:10 0.000100831
*RES
1 *592:Q *110:10 17.7286 
2 *110:10 *533:A 13.8 
3 *110:10 *629:A 16.9607 
*END

*D_NET *111 0.01618
*CONN
*I *609:A I *D sky130_fd_sc_hd__clkbuf_2
*I *630:A I *D sky130_fd_sc_hd__buf_2
*I *546:D1 I *D sky130_fd_sc_hd__o2111a_1
*I *584:Q O *D sky130_fd_sc_hd__dfxtp_1
*CAP
1 *609:A 0.000228602
2 *630:A 0.00222284
3 *546:D1 8.13136e-05
4 *584:Q 0.000254848
5 *111:12 0.00361655
6 *111:8 0.00179584
7 *546:D1 *541:C 0
8 *546:D1 *543:A1 0
9 *609:A *129:10 3.32631e-05
10 *630:A *520:A1 0.000213865
11 *630:A *113:18 0.00115563
12 *111:8 *516:A_N 0
13 *111:8 *129:10 0
14 *111:12 *520:A1 0.00242022
15 *111:12 *113:18 0.00415705
16 *546:A2 *546:D1 0
17 *573:B1 *609:A 0
18 *605:A *111:8 0
19 *89:22 *111:8 0
20 *107:83 *609:A 0
21 *107:83 *111:8 0
*RES
1 *584:Q *111:8 17.1125 
2 *111:8 *111:12 10.0871 
3 *111:12 *546:D1 18.3975 
4 *111:12 *630:A 27.4464 
5 *111:8 *609:A 17.5768 
*END

*D_NET *112 0.0226609
*CONN
*I *631:A I *D sky130_fd_sc_hd__buf_2
*I *513:A I *D sky130_fd_sc_hd__inv_2
*I *520:A1 I *D sky130_fd_sc_hd__o211a_1
*I *543:B1 I *D sky130_fd_sc_hd__o21a_1
*I *593:Q O *D sky130_fd_sc_hd__dfxtp_2
*CAP
1 *631:A 0.000157196
2 *513:A 0.000110591
3 *520:A1 0.00520614
4 *543:B1 0
5 *593:Q 0
6 *112:40 0.00280563
7 *112:10 0.00588089
8 *112:4 0.0032126
9 *520:A1 *543:A1 2.06112e-05
10 *520:A1 *113:18 0.00132719
11 *520:A1 *136:103 0.000160953
12 *520:A1 *136:116 0.000189527
13 *520:A2 *520:A1 4.5534e-05
14 *520:B1 *520:A1 0.000100388
15 *524:A2 *520:A1 0.000175761
16 *585:CLK *520:A1 2.69614e-05
17 *593:CLK *520:A1 0
18 *593:CLK *112:10 0
19 *593:D *112:10 0.000300402
20 *630:A *520:A1 0.000213865
21 *79:10 *520:A1 0.000182899
22 *89:29 *520:A1 0.000123563
23 *109:10 *631:A 0
24 *109:10 *112:40 0
25 *111:12 *520:A1 0.00242022
*RES
1 *593:Q *112:4 9.3 
2 *112:4 *112:10 13.1607 
3 *112:10 *543:B1 13.8 
4 *112:10 *520:A1 35.088 
5 *112:4 *112:40 39.6429 
6 *112:40 *513:A 15.5679 
7 *112:40 *631:A 16.6571 
*END

*D_NET *113 0.0199466
*CONN
*I *632:A I *D sky130_fd_sc_hd__buf_2
*I *512:A I *D sky130_fd_sc_hd__inv_2
*I *522:A1 I *D sky130_fd_sc_hd__o211a_1
*I *594:Q O *D sky130_fd_sc_hd__dfxtp_1
*CAP
1 *632:A 0.000331503
2 *512:A 0
3 *522:A1 0
4 *594:Q 0
5 *113:27 0.000405879
6 *113:18 0.00562401
7 *113:4 0.00569839
8 *632:A *548:B1 5.71472e-05
9 *632:A *640:A 0
10 *113:18 *120:26 0.000286754
11 *113:18 *130:33 4.32309e-05
12 *113:27 *548:B1 0.000104956
13 *520:A1 *113:18 0.00132719
14 *520:A2 *113:18 2.09826e-05
15 *583:A2 *113:18 0
16 *630:A *113:18 0.00115563
17 *91:42 *113:18 0.000503056
18 *103:23 *113:18 0.000166636
19 *103:92 *113:18 0
20 *108:12 *113:18 6.42338e-05
21 *111:12 *113:18 0.00415705
*RES
1 *594:Q *113:4 9.3 
2 *113:4 *113:18 42.6011 
3 *113:18 *522:A1 9.3 
4 *113:4 *113:27 1.67857 
5 *113:27 *512:A 9.3 
6 *113:27 *632:A 24.1571 
*END

*D_NET *114 0.0133183
*CONN
*I *511:A I *D sky130_fd_sc_hd__inv_2
*I *633:A I *D sky130_fd_sc_hd__buf_2
*I *553:B1 I *D sky130_fd_sc_hd__o41a_1
*I *524:A1 I *D sky130_fd_sc_hd__o211a_1
*I *595:Q O *D sky130_fd_sc_hd__dfxtp_1
*CAP
1 *511:A 8.21614e-06
2 *633:A 0.000131508
3 *553:B1 0
4 *524:A1 0.000181086
5 *595:Q 0
6 *114:54 0.000237227
7 *114:34 0.00360732
8 *114:30 0.00392132
9 *114:24 0.00124181
10 *114:6 0.000844235
11 *633:A *641:A 8.39e-05
12 *114:24 *541:C 0.000173804
13 *114:24 *132:46 0.000268396
14 *114:24 *132:54 0.00020423
15 *114:30 *549:D 6.68527e-05
16 *114:30 *129:116 2.20608e-05
17 *114:30 *133:24 7.2754e-05
18 *114:34 *576:B 1.72894e-05
19 *514:A *114:24 0
20 *524:B1 *524:A1 4.1331e-06
21 *550:D *114:24 0.000197558
22 *572:A1 *114:24 0.000139289
23 *580:A *114:30 5.25167e-05
24 *584:D *114:34 5.05456e-05
25 *601:CLK *114:34 0.000184276
26 *601:D *114:34 7.01199e-06
27 *602:D *114:34 3.63866e-05
28 *52:10 *114:30 0
29 *76:19 *114:30 1.02532e-05
30 *78:12 *114:24 0
31 *78:29 *114:24 6.4443e-05
32 *78:29 *114:30 0
33 *78:48 *114:30 0
34 *89:22 *114:34 0.000144856
35 *89:79 *114:34 0.000252776
36 *99:69 *511:A 4.38128e-05
37 *99:69 *114:54 0.000405733
38 *104:25 *114:34 0.000145807
39 *104:34 *114:34 3.78513e-05
40 *104:94 *511:A 5.52302e-05
41 *104:94 *114:54 0.00040381
42 *106:10 *114:30 0
43 *107:49 *114:24 0
44 *109:22 *114:24 0
*RES
1 *595:Q *114:6 13.8 
2 *114:6 *114:24 20.7857 
3 *114:24 *114:30 17.0179 
4 *114:30 *114:34 48.1607 
5 *114:34 *524:A1 16.9607 
6 *114:24 *553:B1 9.3 
7 *114:6 *114:54 9.05357 
8 *114:54 *633:A 21.1571 
9 *114:54 *511:A 9.83571 
*END

*D_NET *115 0.0111311
*CONN
*I *634:A I *D sky130_fd_sc_hd__buf_2
*I *510:A I *D sky130_fd_sc_hd__inv_2
*I *526:A1 I *D sky130_fd_sc_hd__o211a_1
*I *596:Q O *D sky130_fd_sc_hd__dfxtp_1
*CAP
1 *634:A 0.000277153
2 *510:A 3.7934e-05
3 *526:A1 0.00158528
4 *596:Q 0
5 *115:14 0.00353935
6 *115:8 0.00203686
7 *115:6 0.000322003
8 *526:A1 *523:A 4.05411e-05
9 *526:A1 *570:B1 2.89114e-05
10 *526:A1 *118:33 0.000126439
11 *634:A *642:A 9.56968e-05
12 *115:8 *558:B1 4.46186e-06
13 *115:8 *642:A 2.39876e-05
14 *115:14 *558:B1 7.43483e-05
15 *526:A2 *526:A1 1.02132e-05
16 *526:B1 *526:A1 0.000297816
17 *556:B_N *115:14 5.59013e-05
18 *557:A1 *115:14 0
19 *560:A2 *115:14 5.59013e-05
20 *562:A *115:14 0
21 *562:B *115:14 0
22 *595:D *115:14 0
23 *606:A *115:14 0.00100725
24 *607:A *115:14 0.000175251
25 *78:48 *115:14 0.000662718
26 *80:81 *526:A1 3.81416e-06
27 *80:91 *526:A1 4.76637e-06
28 *94:44 *115:14 0.000221802
29 *104:8 *115:14 0.000219828
30 *107:55 *115:14 0.000222893
*RES
1 *596:Q *115:6 13.8 
2 *115:6 *115:8 0.732143 
3 *115:8 *115:14 46.9464 
4 *115:14 *526:A1 38.7643 
5 *115:8 *510:A 14.3357 
6 *115:6 *634:A 19.05 
*END

*D_NET *116 0.00243664
*CONN
*I *509:A I *D sky130_fd_sc_hd__inv_2
*I *635:A I *D sky130_fd_sc_hd__buf_2
*I *616:A I *D sky130_fd_sc_hd__dlygate4sd3_1
*I *597:Q O *D sky130_fd_sc_hd__dfxtp_1
*CAP
1 *509:A 0.000410456
2 *635:A 0.00014374
3 *616:A 0.000270342
4 *597:Q 1.97876e-05
5 *116:8 0.00046942
6 *116:6 0.000485581
7 *616:A *574:B1 5.71472e-05
8 *574:A2 *616:A 9.90431e-05
9 *575:B1 *616:A 1.02821e-05
10 *597:CLK *509:A 8.41504e-05
11 *597:D *509:A 1.64343e-05
12 *99:69 *509:A 0.000327461
13 *104:78 *509:A 4.27935e-05
*RES
1 *597:Q *116:6 9.72857 
2 *116:6 *116:8 0.946429 
3 *116:8 *616:A 14.3536 
4 *116:8 *635:A 20.8536 
5 *116:6 *509:A 18.8893 
*END

*D_NET *117 0.00195428
*CONN
*I *615:A I *D sky130_fd_sc_hd__dlygate4sd3_1
*I *636:A I *D sky130_fd_sc_hd__buf_2
*I *508:A I *D sky130_fd_sc_hd__inv_2
*I *598:Q O *D sky130_fd_sc_hd__dfxtp_1
*CAP
1 *615:A 6.47673e-05
2 *636:A 0.000332982
3 *508:A 0.000275089
4 *598:Q 0
5 *117:6 0.00060807
6 *117:4 6.47673e-05
7 *615:A *528:A1 0.000160087
8 *530:B1 *636:A 0
9 *598:CLK *508:A 0
10 *598:CLK *636:A 0
11 *617:A *508:A 0
12 *617:A *636:A 0
13 *80:44 *508:A 0.00044852
*RES
1 *598:Q *117:4 9.3 
2 *117:4 *117:6 4.5 
3 *117:6 *508:A 19.675 
4 *117:6 *636:A 18.6214 
5 *117:4 *615:A 10.9786 
*END

*D_NET *118 0.00731784
*CONN
*I *507:A I *D sky130_fd_sc_hd__inv_2
*I *637:A I *D sky130_fd_sc_hd__buf_2
*I *532:A1 I *D sky130_fd_sc_hd__o211a_1
*I *570:B1 I *D sky130_fd_sc_hd__o41a_1
*I *599:Q O *D sky130_fd_sc_hd__dfxtp_1
*CAP
1 *507:A 0
2 *637:A 0.000192046
3 *532:A1 0.000105705
4 *570:B1 0.000581484
5 *599:Q 0.000113438
6 *118:37 0.000396193
7 *118:33 0.00135351
8 *118:8 0.00194999
9 *532:A1 *136:64 0
10 *637:A *652:A 9.83388e-05
11 *118:33 *527:A 0
12 *118:33 *589:D 0.00017088
13 *118:33 *128:16 8.52266e-05
14 *118:33 *136:64 1.98839e-05
15 *118:33 *154:10 0.000218019
16 *118:37 *136:64 0.000265716
17 *526:A1 *570:B1 2.89114e-05
18 *526:A1 *118:33 0.000126439
19 *527:B *118:33 0
20 *528:B1 *118:33 0
21 *529:B *118:33 0
22 *570:A4 *570:B1 1.04232e-05
23 *573:A1 *570:B1 9.31893e-05
24 *573:A3 *570:B1 0.000276211
25 *573:B1 *570:B1 5.52302e-05
26 *591:D *532:A1 9.91224e-05
27 *600:D *532:A1 0.000187042
28 *79:10 *118:8 0
29 *79:19 *118:8 0
30 *79:19 *118:33 0
31 *80:75 *532:A1 0.000171375
32 *80:75 *637:A 3.34366e-05
33 *80:75 *118:33 5.33005e-05
34 *80:75 *118:37 0.000447622
35 *103:80 *532:A1 0.000185118
*RES
1 *599:Q *118:8 15.7464 
2 *118:8 *570:B1 25.0321 
3 *118:8 *118:33 32.4464 
4 *118:33 *118:37 9.14286 
5 *118:37 *532:A1 17.8179 
6 *118:37 *637:A 17.6036 
7 *118:33 *507:A 9.3 
*END

*D_NET *119 0.0026014
*CONN
*I *638:A I *D sky130_fd_sc_hd__buf_2
*I *506:A I *D sky130_fd_sc_hd__inv_2
*I *620:A I *D sky130_fd_sc_hd__dlygate4sd3_1
*I *600:Q O *D sky130_fd_sc_hd__dfxtp_1
*CAP
1 *638:A 0.000456738
2 *506:A 2.52056e-05
3 *620:A 8.74564e-05
4 *600:Q 7.26651e-05
5 *119:19 0.000535439
6 *119:8 0.000213617
7 *506:A *653:A 5.52302e-05
8 *620:A *533:B 0.000247771
9 *620:A *624:A 0
10 *620:A *128:16 0.000106533
11 *638:A *646:A 0.000104236
12 *638:A *652:A 0.000248788
13 *119:19 *533:B 9.22948e-05
14 *119:19 *646:A 2.58997e-05
15 *119:19 *128:16 3.92854e-05
16 adc_out[5] *638:A 9.31893e-05
17 adc_out[7] *638:A 0.00010096
18 *103:86 *119:8 9.60875e-05
*RES
1 *600:Q *119:8 14.7464 
2 *119:8 *620:A 16.9607 
3 *119:8 *119:19 1.64286 
4 *119:19 *506:A 14.3357 
5 *119:19 *638:A 24.3 
*END

*D_NET *120 0.00921157
*CONN
*I *614:A I *D sky130_fd_sc_hd__buf_2
*I *536:A I *D sky130_fd_sc_hd__nand2_2
*I *628:X O *D sky130_fd_sc_hd__buf_1
*CAP
1 *614:A 0
2 *536:A 2.25053e-05
3 *628:X 0.00154602
4 *120:26 0.00205218
5 *120:14 0.0035757
6 *536:A *128:16 1.58163e-05
7 *120:14 *130:12 5.65955e-05
8 *120:14 *130:18 2.09136e-05
9 *120:26 *618:A 2.07937e-05
10 *120:26 *649:A 6.16449e-05
11 *120:26 *130:12 4.1993e-05
12 *120:26 *136:14 5.98316e-05
13 *515:A *120:26 1.30681e-05
14 *536:B *536:A 5.33005e-05
15 *587:D *120:26 0.00010419
16 *598:CLK *120:26 0.000161675
17 *599:D *120:26 0.00023456
18 *80:25 *120:26 0.00058319
19 *80:44 *120:26 4.56437e-05
20 *103:14 *120:26 2.27416e-05
21 *103:23 *120:26 0.000232455
22 *113:18 *120:26 0.000286754
*RES
1 *628:X *120:14 37.8179 
2 *120:14 *120:26 45.7679 
3 *120:26 *536:A 14.3357 
4 *120:14 *614:A 9.3 
*END

*D_NET *121 0.000768633
*CONN
*I *639:A I *D sky130_fd_sc_hd__buf_2
*I *513:Y O *D sky130_fd_sc_hd__inv_2
*CAP
1 *639:A 0.000366708
2 *513:Y 0.000366708
3 *627:A *639:A 9.54798e-06
4 *109:10 *639:A 2.56694e-05
*RES
1 *513:Y *639:A 32.5464 
*END

*D_NET *122 0.00325626
*CONN
*I *640:A I *D sky130_fd_sc_hd__buf_2
*I *548:B1 I *D sky130_fd_sc_hd__a21o_1
*I *512:Y O *D sky130_fd_sc_hd__inv_2
*CAP
1 *640:A 0.000857642
2 *548:B1 0.000530901
3 *512:Y 0
4 *122:4 0.00138854
5 dac_in_n[1] *640:A 5.30637e-06
6 *548:A1 *548:B1 9.71197e-05
7 *548:A2 *548:B1 5.52302e-05
8 *594:D *548:B1 8.42801e-05
9 *632:A *548:B1 5.71472e-05
10 *632:A *640:A 0
11 *104:94 *548:B1 7.51327e-05
12 *113:27 *548:B1 0.000104956
*RES
1 *512:Y *122:4 9.3 
2 *122:4 *548:B1 19.9964 
3 *122:4 *640:A 32.6036 
*END

*D_NET *123 0.00090895
*CONN
*I *641:A I *D sky130_fd_sc_hd__buf_2
*I *511:Y O *D sky130_fd_sc_hd__inv_2
*CAP
1 *641:A 0.000405781
2 *511:Y 0.000405781
3 dac_in[2] *641:A 6.05161e-06
4 dac_in_n[2] *641:A 7.43578e-06
5 *633:A *641:A 8.39e-05
*RES
1 *511:Y *641:A 35.0107 
*END

*D_NET *124 0.00155035
*CONN
*I *642:A I *D sky130_fd_sc_hd__buf_2
*I *558:B1 I *D sky130_fd_sc_hd__a21oi_1
*I *510:Y O *D sky130_fd_sc_hd__inv_2
*CAP
1 *642:A 0.000305427
2 *558:B1 0.000229125
3 *510:Y 0
4 *124:6 0.000534551
5 *558:A1 *558:B1 0.00014285
6 *595:D *558:B1 0
7 *634:A *642:A 9.56968e-05
8 *94:33 *558:B1 0.000139907
9 *115:8 *558:B1 4.46186e-06
10 *115:8 *642:A 2.39876e-05
11 *115:14 *558:B1 7.43483e-05
*RES
1 *510:Y *124:6 13.8 
2 *124:6 *558:B1 18.3357 
3 *124:6 *642:A 19.6571 
*END

*D_NET *125 0.00134149
*CONN
*I *643:A I *D sky130_fd_sc_hd__buf_2
*I *564:B1 I *D sky130_fd_sc_hd__a21o_1
*I *509:Y O *D sky130_fd_sc_hd__inv_2
*CAP
1 *643:A 0.000274756
2 *564:B1 0.000178696
3 *509:Y 0
4 *125:6 0.000453452
5 *564:A1 *564:B1 7.60956e-05
6 *565:A1 *564:B1 2.59355e-05
7 *565:A2 *564:B1 0.000186662
8 *565:A3 *564:B1 5.71472e-05
9 *596:D *564:B1 0
10 *596:D *643:A 0
11 *597:D *564:B1 8.43535e-06
12 *104:69 *564:B1 4.78056e-05
13 *104:69 *643:A 3.25078e-05
*RES
1 *509:Y *125:6 13.8 
2 *125:6 *564:B1 18.1571 
3 *125:6 *643:A 18.6214 
*END

*D_NET *126 0.00182468
*CONN
*I *566:B1 I *D sky130_fd_sc_hd__a21o_1
*I *644:A I *D sky130_fd_sc_hd__buf_2
*I *508:Y O *D sky130_fd_sc_hd__inv_2
*CAP
1 *566:B1 0.000265047
2 *644:A 0.000268803
3 *508:Y 0.000137691
4 *126:6 0.000671542
5 *644:A *128:16 0.000121573
6 *574:A2 *566:B1 1.46624e-05
7 *575:A1 *566:B1 0.000266473
8 *575:A2 *126:6 5.33433e-05
9 *575:B1 *566:B1 0
10 *598:CLK *644:A 0
11 *600:D *126:6 2.13481e-06
12 *60:23 *566:B1 4.1331e-06
13 *80:44 *126:6 1.92789e-05
*RES
1 *508:Y *126:6 11.0679 
2 *126:6 *644:A 23.2107 
3 *126:6 *566:B1 22.0321 
*END

*D_NET *127 0.000414901
*CONN
*I *645:A I *D sky130_fd_sc_hd__buf_2
*I *507:Y O *D sky130_fd_sc_hd__inv_2
*CAP
1 *645:A 0.00015029
2 *507:Y 0.00015029
3 *645:A *154:10 5.80217e-05
4 *80:75 *645:A 5.62995e-05
*RES
1 *507:Y *645:A 30.4929 
*END

*D_NET *128 0.008684
*CONN
*I *646:A I *D sky130_fd_sc_hd__buf_2
*I *574:B1 I *D sky130_fd_sc_hd__a21oi_1
*I *506:Y O *D sky130_fd_sc_hd__inv_2
*CAP
1 *646:A 0.000174961
2 *574:B1 0.000132237
3 *506:Y 0
4 *128:16 0.0028085
5 *128:6 0.00285123
6 *646:A *624:A 4.1331e-06
7 *646:A *652:A 5.52238e-05
8 *128:16 *589:D 4.76027e-05
9 *128:16 *624:A 9.64695e-05
10 *128:16 *651:A 0.00117246
11 *128:16 *153:6 0.000186669
12 *536:A *128:16 1.58163e-05
13 *536:B *128:16 1.15172e-05
14 *575:A2 *128:16 5.03694e-05
15 *575:B1 *574:B1 0.000151071
16 *591:CLK *646:A 0
17 *598:CLK *128:16 0
18 *598:D *574:B1 5.33005e-05
19 *598:D *128:16 0.00028855
20 *616:A *574:B1 5.71472e-05
21 *620:A *128:16 0.000106533
22 *638:A *646:A 0.000104236
23 *644:A *128:16 0.000121573
24 *69:8 *128:16 3.81416e-06
25 *90:6 *128:16 4.01768e-05
26 *118:33 *128:16 8.52266e-05
27 *119:19 *646:A 2.58997e-05
28 *119:19 *128:16 3.92854e-05
*RES
1 *506:Y *128:6 13.8 
2 *128:6 *128:16 47.4643 
3 *128:16 *574:B1 17.2107 
4 *128:6 *646:A 17.8 
*END

*D_NET *129 0.0116416
*CONN
*I *549:D I *D sky130_fd_sc_hd__and4bb_1
*I *541:A I *D sky130_fd_sc_hd__nand4_1
*I *539:A I *D sky130_fd_sc_hd__nand3_1
*I *578:A1 I *D sky130_fd_sc_hd__a21o_1
*I *538:A I *D sky130_fd_sc_hd__and3_1
*I *554:C_N I *D sky130_fd_sc_hd__nor3b_2
*I *545:C I *D sky130_fd_sc_hd__and3b_1
*I *576:A I *D sky130_fd_sc_hd__or2_1
*I *537:A I *D sky130_fd_sc_hd__nand2_1
*I *516:A_N I *D sky130_fd_sc_hd__and2b_1
*I *609:X O *D sky130_fd_sc_hd__clkbuf_2
*CAP
1 *549:D 0.000110097
2 *541:A 0.000405912
3 *539:A 0
4 *578:A1 0.000198223
5 *538:A 0
6 *554:C_N 2.23854e-05
7 *545:C 0
8 *576:A 8.21255e-05
9 *537:A 2.23854e-05
10 *516:A_N 0.000226154
11 *609:X 0.000244074
12 *129:116 0.000624836
13 *129:105 0.000214117
14 *129:84 0.00062902
15 *129:73 0.000789427
16 *129:60 0.000583855
17 *129:53 0.000442162
18 *129:38 0.00048105
19 *129:27 0.000404893
20 *129:10 0.000798422
21 *516:A_N *516:B 0
22 *541:A *541:D 3.20809e-05
23 *549:D *135:95 0
24 *554:C_N *135:27 0
25 *554:C_N *135:31 0
26 *576:A *576:B 4.03318e-05
27 *578:A1 *578:B1 5.52302e-05
28 *129:27 *517:D_N 0.00037789
29 *129:27 *518:D_N 4.38128e-05
30 *129:27 *135:61 1.74352e-05
31 *129:38 *135:61 3.67142e-05
32 *129:53 *576:B 9.11365e-06
33 *129:53 *135:37 0.000182835
34 *129:53 *135:39 1.71935e-05
35 *129:60 *135:31 3.18676e-05
36 *129:60 *135:37 9.77274e-05
37 *129:73 *135:14 2.57148e-05
38 *129:73 *135:27 0.000269129
39 *129:73 *135:31 9.74583e-05
40 *129:73 *135:89 2.14757e-05
41 *129:84 *135:89 0.000353073
42 *129:84 *135:95 0
43 *129:105 *539:C 0.000127986
44 *129:105 *541:D 1.24368e-05
45 *129:116 *541:D 0.000218315
46 *129:116 *135:95 0
47 *562:B *129:84 0.000162545
48 *573:B1 *516:A_N 5.80706e-06
49 *573:B1 *129:10 9.16166e-05
50 *577:B *129:38 3.47797e-05
51 *577:C *576:A 3.92757e-05
52 *578:A2 *578:A1 0.000122407
53 *578:A2 *129:84 6.61059e-05
54 *579:C *578:A1 0.000266092
55 *580:B *541:A 0.000139913
56 *580:B *129:105 4.86324e-05
57 *580:B *129:116 0.00040381
58 *581:C *541:A 0.000526575
59 *584:D *516:A_N 0
60 *601:D *576:A 0
61 *609:A *129:10 3.32631e-05
62 *80:8 *129:27 0.000315165
63 *89:22 *516:A_N 5.33978e-05
64 *89:22 *537:A 0
65 *89:22 *129:27 0.00040279
66 *89:22 *129:38 0.000214198
67 *89:37 *578:A1 0
68 *89:37 *129:84 0
69 *89:65 *129:105 5.33005e-05
70 *89:79 *578:A1 0.000150625
71 *91:10 *129:53 0
72 *93:6 *129:105 4.35567e-05
73 *95:6 *541:A 3.18676e-05
74 *99:10 *129:53 0
75 *105:10 *578:A1 0
76 *111:8 *516:A_N 0
77 *111:8 *129:10 0
78 *114:30 *549:D 6.68527e-05
79 *114:30 *129:116 2.20608e-05
*RES
1 *609:X *129:10 17.7107 
2 *129:10 *516:A_N 17.8714 
3 *129:10 *129:27 12.5714 
4 *129:27 *537:A 9.72857 
5 *129:27 *129:38 6.67857 
6 *129:38 *576:A 15.4429 
7 *129:38 *129:53 10.5536 
8 *129:53 *545:C 9.3 
9 *129:53 *129:60 2.17857 
10 *129:60 *554:C_N 9.72857 
11 *129:60 *129:73 6.73214 
12 *129:73 *538:A 9.3 
13 *129:73 *129:84 11.0714 
14 *129:84 *578:A1 19.3179 
15 *129:84 *129:105 7.66071 
16 *129:105 *539:A 9.3 
17 *129:105 *129:116 9.05357 
18 *129:116 *541:A 22.2821 
19 *129:116 *549:D 15.7464 
*END

*D_NET *130 0.00799721
*CONN
*I *525:B I *D sky130_fd_sc_hd__or2_1
*I *519:B I *D sky130_fd_sc_hd__or2_1
*I *533:B I *D sky130_fd_sc_hd__or2_1
*I *531:B I *D sky130_fd_sc_hd__or2_1
*I *521:B I *D sky130_fd_sc_hd__or2_1
*I *654:X O *D sky130_fd_sc_hd__buf_1
*CAP
1 *525:B 0.000177026
2 *519:B 0
3 *533:B 0.000599759
4 *531:B 3.09205e-05
5 *521:B 0.000338921
6 *654:X 0
7 *130:33 0.00109903
8 *130:18 0.00136321
9 *130:12 0.000959675
10 *130:6 0.000580764
11 *521:B *521:A 5.71472e-05
12 *521:B *622:A 0.000104611
13 *525:B *525:A 5.52238e-05
14 *525:B *626:A 0
15 *525:B *651:A 1.39841e-05
16 *533:B *531:A 0
17 *533:B *592:D 0.000186669
18 *533:B *653:A 0.000256941
19 *130:12 *526:C1 0.000159086
20 *130:12 *136:6 5.64474e-05
21 *130:12 *136:10 0.00023898
22 *130:12 *136:40 0
23 *130:18 *519:A 0.000144075
24 *130:18 *520:C1 3.18676e-05
25 *130:18 *623:A 5.33433e-05
26 *130:33 *520:C1 3.2746e-05
27 *130:33 *623:A 7.80714e-06
28 *520:A2 *130:33 9.01382e-05
29 *520:B1 *521:B 2.89016e-05
30 *520:B1 *130:18 0.000132639
31 *522:B1 *521:B 9.70217e-05
32 *522:B1 *130:33 0.000147332
33 *534:B1 *533:B 9.90367e-05
34 *585:CLK *130:33 0
35 *588:CLK *531:B 2.89114e-05
36 *588:D *130:33 0
37 *620:A *533:B 0.000247771
38 *621:A *533:B 0.00014232
39 *80:81 *525:B 0.000114617
40 *80:81 *130:12 6.52632e-05
41 *80:91 *130:33 0
42 *103:90 *533:B 0
43 *103:90 *130:33 0
44 *103:92 *130:33 0
45 *113:18 *130:33 4.32309e-05
46 *119:19 *533:B 9.22948e-05
47 *120:14 *130:12 5.65955e-05
48 *120:14 *130:18 2.09136e-05
49 *120:26 *130:12 4.1993e-05
*RES
1 *654:X *130:6 13.8 
2 *130:6 *130:12 13.375 
3 *130:12 *130:18 7.96429 
4 *130:18 *521:B 15.9964 
5 *130:18 *130:33 13.4821 
6 *130:33 *531:B 14.3357 
7 *130:33 *533:B 27.5679 
8 *130:12 *519:B 9.3 
9 *130:6 *525:B 17.6036 
*END

*D_NET *131 0.00194052
*CONN
*I *623:A I *D sky130_fd_sc_hd__dlygate4sd3_1
*I *647:A I *D sky130_fd_sc_hd__buf_2
*I *585:Q O *D sky130_fd_sc_hd__dfxtp_1
*CAP
1 *623:A 0.000127443
2 *647:A 0.000590634
3 *585:Q 0
4 *131:4 0.000718077
5 *623:A *520:C1 9.25014e-06
6 *520:B1 *623:A 9.90431e-05
7 *585:CLK *623:A 0
8 *585:CLK *647:A 0.000334921
9 *130:18 *623:A 5.33433e-05
10 *130:33 *623:A 7.80714e-06
*RES
1 *585:Q *131:4 9.3 
2 *131:4 *647:A 17.1393 
3 *131:4 *623:A 20.8893 
*END

*D_NET *132 0.0128332
*CONN
*I *540:A_N I *D sky130_fd_sc_hd__and2b_1
*I *550:A I *D sky130_fd_sc_hd__or4_1
*I *553:A1 I *D sky130_fd_sc_hd__o41a_1
*I *559:A I *D sky130_fd_sc_hd__nor2_2
*I *518:D_N I *D sky130_fd_sc_hd__or4b_4
*I *517:D_N I *D sky130_fd_sc_hd__nor4b_1
*I *567:A I *D sky130_fd_sc_hd__or4_1
*I *570:A1 I *D sky130_fd_sc_hd__o41a_1
*I *582:A I *D sky130_fd_sc_hd__nand2_1
*I *543:A1 I *D sky130_fd_sc_hd__o21a_1
*I *610:X O *D sky130_fd_sc_hd__buf_2
*CAP
1 *540:A_N 0
2 *550:A 0
3 *553:A1 0
4 *559:A 0
5 *518:D_N 1.06454e-05
6 *517:D_N 6.95169e-05
7 *567:A 0
8 *570:A1 4.42588e-05
9 *582:A 0.000128892
10 *543:A1 0.000255163
11 *610:X 0.00036816
12 *132:84 0.000258835
13 *132:66 8.80145e-05
14 *132:62 0.000576086
15 *132:54 0.00131233
16 *132:46 0.00111372
17 *132:38 0.000355171
18 *132:36 0.00022654
19 *132:10 0.000435368
20 *132:8 0.000445885
21 *517:D_N *517:B 1.54142e-05
22 *517:D_N *133:56 0.000142856
23 *517:D_N *135:61 2.14658e-05
24 *518:D_N *135:61 2.89114e-05
25 *570:A1 *570:A3 0.000226513
26 *132:38 *541:C 0.000140933
27 *132:46 *541:C 6.72808e-05
28 *132:66 *570:A3 3.1889e-05
29 *132:84 *133:56 0.000141882
30 *132:84 *133:74 0.000220033
31 *132:84 *135:37 0
32 *132:84 *135:39 0
33 *517:A *517:D_N 0.000232399
34 *518:A *517:D_N 4.38128e-05
35 *520:A1 *543:A1 2.06112e-05
36 *540:B *132:38 0.00035582
37 *542:B *543:A1 1.17968e-05
38 *542:B *132:10 6.5185e-05
39 *542:B *132:36 4.35131e-05
40 *546:B1 *543:A1 6.58289e-05
41 *546:B1 *132:10 4.38511e-05
42 *546:B1 *132:36 2.78729e-05
43 *546:D1 *543:A1 0
44 *547:A2 *543:A1 0
45 *549:A_N *132:8 0.000251803
46 *549:A_N *132:38 0.000964548
47 *570:A4 *132:62 1.21258e-05
48 *570:A4 *132:66 1.21258e-05
49 *572:A1 *132:54 0.000151347
50 *572:B1 *132:54 5.52238e-05
51 *573:A3 *570:A1 0.000179759
52 *573:A3 *132:54 0.000619043
53 *573:A3 *132:62 0.000416227
54 *573:A3 *132:66 0.00010946
55 *583:A2 *582:A 3.18676e-05
56 *593:D *543:A1 5.62995e-05
57 *605:A *132:84 0
58 *78:29 *132:46 0.000137515
59 *78:29 *132:54 0.000393949
60 *80:8 *517:D_N 0.00010096
61 *91:10 *132:84 0.000263584
62 *91:23 *132:84 4.90803e-05
63 *91:42 *132:84 2.31791e-05
64 *95:12 *543:A1 5.52302e-05
65 *95:23 *543:A1 0.000189342
66 *107:34 *132:46 0.000173804
67 *107:49 *132:46 5.59013e-05
68 *114:24 *132:46 0.000268396
69 *114:24 *132:54 0.00020423
70 *129:27 *517:D_N 0.00037789
71 *129:27 *518:D_N 4.38128e-05
*RES
1 *610:X *132:8 18.8536 
2 *132:8 *132:10 1.64286 
3 *132:10 *543:A1 19.7286 
4 *132:10 *582:A 15.9964 
5 *132:8 *132:36 5.53571 
6 *132:36 *132:38 9.16071 
7 *132:38 *132:46 14.4464 
8 *132:46 *132:54 20.8214 
9 *132:54 *132:62 7.35714 
10 *132:62 *132:66 1.375 
11 *132:66 *570:A1 11.4786 
12 *132:66 *567:A 9.3 
13 *132:62 *132:84 14.2857 
14 *132:84 *517:D_N 13.9429 
15 *132:84 *518:D_N 9.83571 
16 *132:54 *559:A 9.3 
17 *132:46 *553:A1 9.3 
18 *132:38 *550:A 9.3 
19 *132:36 *540:A_N 9.3 
*END

*D_NET *133 0.0115657
*CONN
*I *541:C I *D sky130_fd_sc_hd__nand4_1
*I *550:C I *D sky130_fd_sc_hd__or4_1
*I *553:A3 I *D sky130_fd_sc_hd__o41a_1
*I *538:B I *D sky130_fd_sc_hd__and3_1
*I *567:C I *D sky130_fd_sc_hd__or4_1
*I *570:A3 I *D sky130_fd_sc_hd__o41a_1
*I *518:B I *D sky130_fd_sc_hd__or4b_4
*I *517:B I *D sky130_fd_sc_hd__nor4b_1
*I *545:B I *D sky130_fd_sc_hd__and3b_1
*I *554:A I *D sky130_fd_sc_hd__nor3b_2
*I *611:X O *D sky130_fd_sc_hd__buf_2
*CAP
1 *541:C 0.000488508
2 *550:C 0
3 *553:A3 0
4 *538:B 0
5 *567:C 0
6 *570:A3 0.000108238
7 *518:B 0
8 *517:B 8.74403e-05
9 *545:B 0
10 *554:A 3.14716e-05
11 *611:X 0.000131974
12 *133:106 0.00058116
13 *133:74 0.000215886
14 *133:56 0.00022037
15 *133:48 0.000602015
16 *133:37 0.000854452
17 *133:35 0.000531236
18 *133:24 0.000602305
19 *133:14 0.000619935
20 *133:10 0.000311947
21 *517:B *517:C 0.000434378
22 *554:A *538:C 1.01168e-05
23 *554:A *135:14 2.51024e-05
24 *554:A *135:27 6.05377e-05
25 *554:A *135:31 1.21436e-05
26 *133:24 *134:14 0.000416851
27 *133:24 *134:20 0.000143093
28 *133:24 *135:14 5.71472e-05
29 *133:24 *135:89 0.000599673
30 *133:37 *135:27 3.40043e-05
31 *133:37 *135:31 0.000168057
32 *133:37 *135:37 9.77274e-05
33 *133:48 *135:37 0.000399848
34 *133:56 *517:C 2.54974e-05
35 *133:56 *135:61 9.90367e-05
36 *517:A *517:B 0.000272371
37 *517:D_N *517:B 1.54142e-05
38 *517:D_N *133:56 0.000142856
39 *518:A *517:B 5.52302e-05
40 *540:B *541:C 0.000181796
41 *546:A2 *541:C 0
42 *546:D1 *541:C 0
43 *549:A_N *541:C 4.27338e-05
44 *549:A_N *133:10 5.83304e-05
45 *549:A_N *133:14 1.81709e-05
46 *549:A_N *133:106 0.000113005
47 *550:B *133:14 6.98302e-05
48 *550:B *133:106 2.14658e-05
49 *557:A1 *133:10 0
50 *557:A1 *133:14 3.75052e-05
51 *557:A1 *133:24 2.8266e-06
52 *557:A3 *133:10 5.83461e-05
53 *570:A1 *570:A3 0.000226513
54 *570:A4 *570:A3 0.000435578
55 *573:A3 *570:A3 5.23057e-05
56 *581:C *541:C 1.36181e-05
57 *605:A *133:56 3.79304e-05
58 *605:A *133:74 7.13291e-05
59 *52:10 *133:24 5.71472e-05
60 *76:19 *133:24 0.000168939
61 *76:32 *133:14 1.02504e-05
62 *76:32 *133:24 4.66511e-05
63 *78:12 *541:C 0
64 *78:48 *133:24 0
65 *80:8 *517:B 1.55885e-05
66 *91:42 *133:24 1.90936e-05
67 *98:10 *133:24 5.71472e-05
68 *105:14 *133:24 0.000207766
69 *105:27 *133:24 4.43256e-05
70 *107:21 *541:C 0
71 *107:34 *541:C 0
72 *107:49 *133:106 8.43535e-06
73 *107:55 *133:106 3.69047e-06
74 *109:22 *133:106 0.00018077
75 *114:24 *541:C 0.000173804
76 *114:30 *133:24 7.2754e-05
77 *132:38 *541:C 0.000140933
78 *132:46 *541:C 6.72808e-05
79 *132:66 *570:A3 3.1889e-05
80 *132:84 *133:56 0.000141882
81 *132:84 *133:74 0.000220033
*RES
1 *611:X *133:10 16.2821 
2 *133:10 *133:14 2.17857 
3 *133:14 *133:24 19.8393 
4 *133:24 *554:A 11.0857 
5 *133:24 *133:35 0.732143 
6 *133:35 *133:37 7.10714 
7 *133:37 *545:B 9.3 
8 *133:37 *133:48 10.8036 
9 *133:48 *133:56 8.23214 
10 *133:56 *517:B 13.55 
11 *133:56 *518:B 9.3 
12 *133:48 *133:74 7.35714 
13 *133:74 *570:A3 13.9786 
14 *133:74 *567:C 9.3 
15 *133:35 *538:B 9.3 
16 *133:14 *553:A3 13.8 
17 *133:10 *133:106 7.08929 
18 *133:106 *550:C 9.3 
19 *133:106 *541:C 27.8893 
*END

*D_NET *134 0.00453474
*CONN
*I *546:C1 I *D sky130_fd_sc_hd__o2111a_1
*I *549:B_N I *D sky130_fd_sc_hd__and4bb_1
*I *544:B I *D sky130_fd_sc_hd__and2b_1
*I *539:B I *D sky130_fd_sc_hd__nand3_1
*I *578:B1 I *D sky130_fd_sc_hd__a21o_1
*I *612:X O *D sky130_fd_sc_hd__buf_1
*CAP
1 *546:C1 0.0004565
2 *549:B_N 0
3 *544:B 0
4 *539:B 0
5 *578:B1 0.000371612
6 *612:X 0
7 *134:20 0.000530332
8 *134:14 0.000331562
9 *134:8 0.000331285
10 *134:4 0.000614943
11 *578:B1 *135:95 5.59013e-05
12 *134:20 *135:95 0.000165675
13 *504:A *546:C1 5.52302e-05
14 *504:A *134:8 0
15 *504:A *134:14 0
16 *505:A *546:C1 9.70217e-05
17 *505:A *134:14 4.33174e-05
18 *546:A1 *546:C1 5.23057e-05
19 *546:B1 *546:C1 3.77662e-05
20 *549:C *134:14 5.52238e-05
21 *578:A1 *578:B1 5.52302e-05
22 *578:A2 *578:B1 0.000186641
23 *578:A2 *134:20 6.1644e-05
24 *579:C *578:B1 7.43578e-06
25 *76:8 *546:C1 2.77173e-05
26 *76:8 *134:8 6.26078e-05
27 *76:8 *134:14 5.33005e-05
28 *105:27 *134:14 9.40071e-05
29 *105:27 *134:20 0.000227532
30 *133:24 *134:14 0.000416851
31 *133:24 *134:20 0.000143093
*RES
1 *612:X *134:4 9.3 
2 *134:4 *134:8 2.19643 
3 *134:8 *134:14 5.80357 
4 *134:14 *134:20 8.92857 
5 *134:20 *578:B1 21.0857 
6 *134:20 *539:B 13.8 
7 *134:14 *544:B 9.3 
8 *134:8 *549:B_N 9.3 
9 *134:4 *546:C1 15.5857 
*END

*D_NET *135 0.00927593
*CONN
*I *544:A_N I *D sky130_fd_sc_hd__and2b_1
*I *541:D I *D sky130_fd_sc_hd__nand4_1
*I *539:C I *D sky130_fd_sc_hd__nand3_1
*I *554:B I *D sky130_fd_sc_hd__nor3b_2
*I *545:A_N I *D sky130_fd_sc_hd__and3b_1
*I *517:C I *D sky130_fd_sc_hd__nor4b_1
*I *518:C I *D sky130_fd_sc_hd__or4b_4
*I *537:B I *D sky130_fd_sc_hd__nand2_1
*I *576:B I *D sky130_fd_sc_hd__or2_1
*I *538:C I *D sky130_fd_sc_hd__and3_1
*I *613:X O *D sky130_fd_sc_hd__buf_2
*CAP
1 *544:A_N 0
2 *541:D 0.000602808
3 *539:C 0.000124136
4 *554:B 0
5 *545:A_N 0
6 *517:C 0.000378147
7 *518:C 0
8 *537:B 0
9 *576:B 0.00014311
10 *538:C 2.35782e-06
11 *613:X 6.2711e-05
12 *135:95 0.000946902
13 *135:89 0.000383448
14 *135:61 0.000496211
15 *135:39 0.000180197
16 *135:37 0.000392668
17 *135:31 0.000315492
18 *135:27 0.000156624
19 *135:14 0.000102449
20 *135:10 0.000247645
21 *517:B *517:C 0.000434378
22 *517:D_N *135:61 2.14658e-05
23 *518:D_N *135:61 2.89114e-05
24 *541:A *541:D 3.20809e-05
25 *541:B *541:D 4.59075e-05
26 *549:D *135:95 0
27 *554:A *538:C 1.01168e-05
28 *554:A *135:14 2.51024e-05
29 *554:A *135:27 6.05377e-05
30 *554:A *135:31 1.21436e-05
31 *554:C_N *135:27 0
32 *554:C_N *135:31 0
33 *576:A *576:B 4.03318e-05
34 *577:B *135:61 4.18895e-05
35 *578:B1 *135:95 5.59013e-05
36 *580:B *541:D 5.1004e-05
37 *581:C *541:D 0.000446129
38 *605:A *576:B 0
39 *613:A *135:10 6.42338e-05
40 *80:8 *517:C 1.32552e-05
41 *91:10 *135:37 3.26129e-05
42 *91:10 *135:61 0.00010096
43 *92:10 *135:10 4.16383e-05
44 *114:34 *576:B 1.72894e-05
45 *129:27 *135:61 1.74352e-05
46 *129:38 *135:61 3.67142e-05
47 *129:53 *576:B 9.11365e-06
48 *129:53 *135:37 0.000182835
49 *129:53 *135:39 1.71935e-05
50 *129:60 *135:31 3.18676e-05
51 *129:60 *135:37 9.77274e-05
52 *129:73 *135:14 2.57148e-05
53 *129:73 *135:27 0.000269129
54 *129:73 *135:31 9.74583e-05
55 *129:73 *135:89 2.14757e-05
56 *129:84 *135:89 0.000353073
57 *129:84 *135:95 0
58 *129:105 *539:C 0.000127986
59 *129:105 *541:D 1.24368e-05
60 *129:116 *541:D 0.000218315
61 *129:116 *135:95 0
62 *132:84 *135:37 0
63 *132:84 *135:39 0
64 *133:24 *135:14 5.71472e-05
65 *133:24 *135:89 0.000599673
66 *133:37 *135:27 3.40043e-05
67 *133:37 *135:31 0.000168057
68 *133:37 *135:37 9.77274e-05
69 *133:48 *135:37 0.000399848
70 *133:56 *517:C 2.54974e-05
71 *133:56 *135:61 9.90367e-05
72 *134:20 *135:95 0.000165675
*RES
1 *613:X *135:10 19.9429 
2 *135:10 *135:14 0.883929 
3 *135:14 *538:C 9.55893 
4 *135:14 *135:27 3.22321 
5 *135:27 *135:31 3.42857 
6 *135:31 *135:37 11.9107 
7 *135:37 *135:39 0.732143 
8 *135:39 *576:B 16.2821 
9 *135:39 *537:B 13.8 
10 *135:37 *135:61 7.5 
11 *135:61 *518:C 9.3 
12 *135:61 *517:C 15.1036 
13 *135:31 *545:A_N 9.3 
14 *135:27 *554:B 9.3 
15 *135:10 *135:89 5.875 
16 *135:89 *135:95 12.4643 
17 *135:95 *539:C 11.0857 
18 *135:95 *541:D 20.1393 
19 *135:89 *544:A_N 9.3 
*END

*D_NET *136 0.0159519
*CONN
*I *535:A I *D sky130_fd_sc_hd__and2_2
*I *516:B I *D sky130_fd_sc_hd__and2b_1
*I *524:C1 I *D sky130_fd_sc_hd__o211a_1
*I *526:C1 I *D sky130_fd_sc_hd__o211a_1
*I *530:C1 I *D sky130_fd_sc_hd__o211a_1
*I *528:C1 I *D sky130_fd_sc_hd__o211a_1
*I *532:C1 I *D sky130_fd_sc_hd__o211a_1
*I *534:C1 I *D sky130_fd_sc_hd__o211a_1
*I *522:C1 I *D sky130_fd_sc_hd__o211a_1
*I *520:C1 I *D sky130_fd_sc_hd__o211a_1
*I *614:X O *D sky130_fd_sc_hd__buf_2
*CAP
1 *535:A 2.89029e-05
2 *516:B 0.000254544
3 *524:C1 0
4 *526:C1 0.000143523
5 *530:C1 0.000728659
6 *528:C1 3.21587e-05
7 *532:C1 0
8 *534:C1 0.000152161
9 *522:C1 0
10 *520:C1 0.000173242
11 *614:X 7.42544e-05
12 *136:116 0.000763062
13 *136:103 0.00138452
14 *136:64 0.00155459
15 *136:51 0.000933066
16 *136:40 0.000732067
17 *136:16 0.000400763
18 *136:14 0.000791989
19 *136:10 0.000427585
20 *136:6 0.00113937
21 *516:B *584:CLK 0
22 *530:C1 *590:D 2.34204e-05
23 *534:C1 *534:A1 5.71472e-05
24 *534:C1 *624:A 0.000361446
25 *534:C1 *651:A 0.000297871
26 *535:A *584:CLK 0
27 *136:14 *649:A 0.000188584
28 *136:16 *649:A 5.20669e-05
29 *136:40 *531:A 0
30 *136:40 *626:A 0.000246057
31 *136:40 *649:A 4.42631e-05
32 *136:51 *624:A 0
33 *136:51 *626:A 9.25014e-06
34 *136:64 *624:A 0
35 *136:116 *584:CLK 9.90431e-05
36 *515:A *535:A 1.76039e-05
37 *515:A *136:116 4.46338e-05
38 *516:A_N *516:B 0
39 *520:A1 *136:103 0.000160953
40 *520:A1 *136:116 0.000189527
41 *520:B1 *520:C1 5.52238e-05
42 *522:B1 *520:C1 0.000147332
43 *524:A2 *136:103 2.64724e-05
44 *524:A2 *136:116 0.000493943
45 *524:B1 *136:103 3.18676e-05
46 *526:B1 *526:C1 0.000225982
47 *530:A2 *530:C1 3.99614e-06
48 *532:A1 *136:64 0
49 *532:B1 *136:51 0.000109659
50 *532:B1 *136:64 5.80706e-06
51 *534:A2 *534:C1 0.000966871
52 *573:B1 *535:A 0
53 *584:D *516:B 0.000150618
54 *591:CLK *136:64 7.65519e-05
55 *591:D *136:64 0.000169331
56 *623:A *520:C1 9.25014e-06
57 *80:12 *535:A 5.80706e-06
58 *80:44 *530:C1 5.23142e-05
59 *80:62 *528:C1 1.3701e-05
60 *80:62 *530:C1 0.000197148
61 *80:75 *530:C1 4.70078e-05
62 *80:75 *136:64 3.30352e-05
63 *80:81 *526:C1 0.000173022
64 *80:91 *520:C1 5.52302e-05
65 *80:91 *136:16 0.000260532
66 *89:22 *516:B 0
67 *103:80 *530:C1 0.000270326
68 *118:33 *136:64 1.98839e-05
69 *118:37 *136:64 0.000265716
70 *120:26 *136:14 5.98316e-05
71 *130:12 *526:C1 0.000159086
72 *130:12 *136:6 5.64474e-05
73 *130:12 *136:10 0.00023898
74 *130:12 *136:40 0
75 *130:18 *520:C1 3.18676e-05
76 *130:33 *520:C1 3.2746e-05
*RES
1 *614:X *136:6 10.2464 
2 *136:6 *136:10 7.96429 
3 *136:10 *136:14 7.91071 
4 *136:14 *136:16 4.64286 
5 *136:16 *520:C1 22.2286 
6 *136:16 *522:C1 9.3 
7 *136:14 *136:40 11.6071 
8 *136:40 *534:C1 22.9607 
9 *136:40 *136:51 2.85714 
10 *136:51 *532:C1 13.8 
11 *136:51 *136:64 15.3036 
12 *136:64 *528:C1 10.0321 
13 *136:64 *530:C1 28.5321 
14 *136:10 *526:C1 18.2286 
15 *136:6 *136:103 11.125 
16 *136:103 *524:C1 9.3 
17 *136:103 *136:116 15.3393 
18 *136:116 *516:B 18.5143 
19 *136:116 *535:A 14.5321 
*END

*D_NET *137 0.000550765
*CONN
*I *584:CLK I *D sky130_fd_sc_hd__dfxtp_1
*I *515:Y O *D sky130_fd_sc_hd__inv_2
*CAP
1 *584:CLK 0.000167735
2 *515:Y 0.000167735
3 *515:A *584:CLK 1.72079e-05
4 *516:B *584:CLK 0
5 *524:A2 *584:CLK 9.90431e-05
6 *535:A *584:CLK 0
7 *136:116 *584:CLK 9.90431e-05
*RES
1 *515:Y *584:CLK 31.1 
*END

*D_NET *138 0.000235697
*CONN
*I *530:A1 I *D sky130_fd_sc_hd__o211a_1
*I *615:X O *D sky130_fd_sc_hd__dlygate4sd3_1
*CAP
1 *530:A1 5.13184e-05
2 *615:X 5.13184e-05
3 *529:B *530:A1 6.65302e-05
4 *530:B1 *530:A1 6.65302e-05
*RES
1 *615:X *530:A1 29.2429 
*END

*D_NET *139 0.00041243
*CONN
*I *590:D I *D sky130_fd_sc_hd__dfxtp_1
*I *619:X O *D sky130_fd_sc_hd__dlygate4sd3_1
*CAP
1 *590:D 0.000125849
2 *619:X 0.000125849
3 *530:C1 *590:D 2.34204e-05
4 *600:D *590:D 7.01199e-06
5 *617:A *590:D 5.52238e-05
6 *80:62 *590:D 5.86416e-05
7 *103:80 *590:D 1.64343e-05
*RES
1 *619:X *590:D 29.9438 
*END

*D_NET *140 0.00049414
*CONN
*I *534:A1 I *D sky130_fd_sc_hd__o211a_1
*I *620:X O *D sky130_fd_sc_hd__dlygate4sd3_1
*CAP
1 *534:A1 6.19089e-05
2 *620:X 6.19089e-05
3 *534:A1 *651:A 0.000229456
4 *534:A2 *534:A1 8.37187e-05
5 *534:C1 *534:A1 5.71472e-05
*RES
1 *620:X *534:A1 21.2071 
*END

*D_NET *141 0.000634508
*CONN
*I *592:D I *D sky130_fd_sc_hd__dfxtp_1
*I *621:X O *D sky130_fd_sc_hd__dlygate4sd3_1
*CAP
1 *592:D 0.00019723
2 *621:X 0.00019723
3 *533:B *592:D 0.000186669
4 *534:B1 *592:D 5.33786e-05
*RES
1 *621:X *592:D 30.8723 
*END

*D_NET *142 0.00145236
*CONN
*I *622:A I *D sky130_fd_sc_hd__dlygate4sd3_1
*I *648:A I *D sky130_fd_sc_hd__buf_2
*I *586:Q O *D sky130_fd_sc_hd__dfxtp_1
*CAP
1 *622:A 8.80259e-05
2 *648:A 0.000164493
3 *586:Q 0.000179602
4 *142:10 0.00043212
5 *622:A *521:A 7.77751e-05
6 adc_out[1] *648:A 0
7 *521:B *622:A 0.000104611
8 *522:B1 *622:A 0.000405733
*RES
1 *586:Q *142:10 16.0857 
2 *142:10 *648:A 16.6571 
3 *142:10 *622:A 18.05 
*END

*D_NET *143 0.00022837
*CONN
*I *521:A I *D sky130_fd_sc_hd__or2_1
*I *622:X O *D sky130_fd_sc_hd__dlygate4sd3_1
*CAP
1 *521:A 4.67237e-05
2 *622:X 4.67237e-05
3 *521:B *521:A 5.71472e-05
4 *622:A *521:A 7.77751e-05
*RES
1 *622:X *521:A 19.9571 
*END

*D_NET *144 0.000246607
*CONN
*I *519:A I *D sky130_fd_sc_hd__or2_1
*I *623:X O *D sky130_fd_sc_hd__dlygate4sd3_1
*CAP
1 *519:A 3.58326e-05
2 *623:X 3.58326e-05
3 *520:B1 *519:A 3.08664e-05
4 *130:18 *519:A 0.000144075
*RES
1 *623:X *519:A 19.9571 
*END

*D_NET *145 0.000557584
*CONN
*I *531:A I *D sky130_fd_sc_hd__or2_1
*I *624:X O *D sky130_fd_sc_hd__dlygate4sd3_1
*CAP
1 *531:A 0.000153746
2 *624:X 0.000153746
3 *531:A *650:A 2.65105e-05
4 *532:B1 *531:A 0.00014285
5 *533:B *531:A 0
6 *588:CLK *531:A 8.07313e-05
7 *136:40 *531:A 0
*RES
1 *624:X *531:A 31.1179 
*END

*D_NET *146 0.00151453
*CONN
*I *542:A I *D sky130_fd_sc_hd__or2_1
*I *625:X O *D sky130_fd_sc_hd__dlygate4sd3_1
*CAP
1 *542:A 0.000538882
2 *625:X 0.000538882
3 *549:A_N *542:A 0.000121866
4 *583:A1 *542:A 0.000138881
5 *108:12 *542:A 0.000176025
*RES
1 *625:X *542:A 35.35 
*END

*D_NET *147 0.000231805
*CONN
*I *525:A I *D sky130_fd_sc_hd__or2_1
*I *626:X O *D sky130_fd_sc_hd__dlygate4sd3_1
*CAP
1 *525:A 5.01941e-05
2 *626:X 5.01941e-05
3 *525:A *651:A 7.61932e-05
4 *525:B *525:A 5.52238e-05
*RES
1 *626:X *525:A 19.9571 
*END

*D_NET *148 0.00293627
*CONN
*I *528:A1 I *D sky130_fd_sc_hd__o211a_1
*I *616:X O *D sky130_fd_sc_hd__dlygate4sd3_1
*CAP
1 *528:A1 0.00097214
2 *616:X 0.00097214
3 *598:CLK *528:A1 0.000103004
4 *598:D *528:A1 0.00016895
5 *615:A *528:A1 0.000160087
6 *617:A *528:A1 0.000151347
7 *619:A *528:A1 5.33005e-05
8 *80:62 *528:A1 0.000319566
9 *80:75 *528:A1 3.57366e-05
*RES
1 *616:X *528:A1 35.5107 
*END

*D_NET *149 0.000298216
*CONN
*I *589:D I *D sky130_fd_sc_hd__dfxtp_1
*I *617:X O *D sky130_fd_sc_hd__dlygate4sd3_1
*CAP
1 *589:D 3.98668e-05
2 *617:X 3.98668e-05
3 *118:33 *589:D 0.00017088
4 *128:16 *589:D 4.76027e-05
*RES
1 *617:X *589:D 20.2295 
*END

*D_NET *150 0.000196711
*CONN
*I *523:A I *D sky130_fd_sc_hd__or2_1
*I *618:X O *D sky130_fd_sc_hd__dlygate4sd3_1
*CAP
1 *523:A 7.80852e-05
2 *618:X 7.80852e-05
3 *526:A1 *523:A 4.05411e-05
*RES
1 *618:X *523:A 19.9571 
*END

*D_NET *151 0.00419385
*CONN
*I *618:A I *D sky130_fd_sc_hd__dlygate4sd3_1
*I *649:A I *D sky130_fd_sc_hd__buf_2
*I *587:Q O *D sky130_fd_sc_hd__dfxtp_1
*CAP
1 *618:A 0.000237496
2 *649:A 0.00158177
3 *587:Q 0
4 *151:4 0.00181927
5 *524:B1 *618:A 0
6 *588:D *649:A 2.62426e-05
7 *80:91 *649:A 0.000161719
8 *103:14 *618:A 0
9 *120:26 *618:A 2.07937e-05
10 *120:26 *649:A 6.16449e-05
11 *136:14 *649:A 0.000188584
12 *136:16 *649:A 5.20669e-05
13 *136:40 *649:A 4.42631e-05
*RES
1 *587:Q *151:4 9.3 
2 *151:4 *649:A 41.675 
3 *151:4 *618:A 21.7107 
*END

*D_NET *152 0.00358781
*CONN
*I *626:A I *D sky130_fd_sc_hd__dlygate4sd3_1
*I *650:A I *D sky130_fd_sc_hd__buf_2
*I *588:Q O *D sky130_fd_sc_hd__dfxtp_1
*CAP
1 *626:A 9.90867e-05
2 *650:A 0.00116976
3 *588:Q 0.000180229
4 *152:6 0.00144908
5 *525:B *626:A 0
6 *531:A *650:A 2.65105e-05
7 *532:B1 *626:A 0.000125731
8 *532:B1 *650:A 2.81943e-05
9 *532:B1 *152:6 4.76891e-06
10 *588:CLK *650:A 0.00024426
11 *588:D *650:A 4.87669e-06
12 *136:40 *626:A 0.000246057
13 *136:51 *626:A 9.25014e-06
*RES
1 *588:Q *152:6 11.4786 
2 *152:6 *650:A 24.0143 
3 *152:6 *626:A 21.4607 
*END

*D_NET *153 0.00445564
*CONN
*I *527:A I *D sky130_fd_sc_hd__or2_1
*I *651:A I *D sky130_fd_sc_hd__buf_2
*I *589:Q O *D sky130_fd_sc_hd__dfxtp_1
*CAP
1 *527:A 0.000100262
2 *651:A 0.000798855
3 *589:Q 5.67515e-05
4 *153:6 0.000955868
5 *527:A *154:10 0
6 *651:A *624:A 0.000359529
7 *525:A *651:A 7.61932e-05
8 *525:B *651:A 1.39841e-05
9 *527:B *527:A 0.000171368
10 *534:A1 *651:A 0.000229456
11 *534:A2 *651:A 3.63775e-05
12 *534:C1 *651:A 0.000297871
13 *118:33 *527:A 0
14 *128:16 *651:A 0.00117246
15 *128:16 *153:6 0.000186669
*RES
1 *589:Q *153:6 11.0679 
2 *153:6 *651:A 29.4607 
3 *153:6 *527:A 20.55 
*END

*D_NET *154 0.00440796
*CONN
*I *529:A I *D sky130_fd_sc_hd__or2_1
*I *652:A I *D sky130_fd_sc_hd__buf_2
*I *590:Q O *D sky130_fd_sc_hd__dfxtp_1
*CAP
1 *529:A 0.000419545
2 *652:A 0.00104856
3 *590:Q 0.000274374
4 *154:10 0.00174248
5 dac_in[6] *652:A 0.000143651
6 *527:A *154:10 0
7 *529:B *529:A 0.00010096
8 *637:A *652:A 9.83388e-05
9 *638:A *652:A 0.000248788
10 *645:A *154:10 5.80217e-05
11 *646:A *652:A 5.52238e-05
12 *80:75 *154:10 0
13 *118:33 *154:10 0.000218019
*RES
1 *590:Q *154:10 24.1929 
2 *154:10 *652:A 27.5143 
3 *154:10 *529:A 15.9964 
*END

*D_NET *155 0.002924
*CONN
*I *653:A I *D sky130_fd_sc_hd__buf_2
*I *624:A I *D sky130_fd_sc_hd__dlygate4sd3_1
*I *591:Q O *D sky130_fd_sc_hd__dfxtp_1
*CAP
1 *653:A 0.000544924
2 *624:A 0.000240485
3 *591:Q 0
4 *155:4 0.00078541
5 *506:A *653:A 5.52302e-05
6 *533:B *653:A 0.000256941
7 *534:C1 *624:A 0.000361446
8 *591:CLK *624:A 3.57163e-05
9 *620:A *624:A 0
10 *621:A *653:A 0.00018372
11 *646:A *624:A 4.1331e-06
12 *651:A *624:A 0.000359529
13 *128:16 *624:A 9.64695e-05
14 *136:51 *624:A 0
15 *136:64 *624:A 0
*RES
1 *591:Q *155:4 9.3 
2 *155:4 *624:A 25.7821 
3 *155:4 *653:A 20.3357 
*END
