*SPEF "ieee 1481-1999"
*DESIGN "controller"
*DATE "17:04:30 Tuesday December 16, 2025"
*VENDOR "The OpenROAD Project"
*PROGRAM "OpenROAD"
*VERSION "edf00dff99f6c40d67a30c0e22a8191c5d2ed9d6"
*DESIGN_FLOW "NAME_SCOPE LOCAL" "PIN_CAP NONE"
*DIVIDER /
*DELIMITER :
*BUS_DELIMITER []
*T_UNIT 1 NS
*C_UNIT 1 PF
*R_UNIT 1 OHM
*L_UNIT 1 HENRY

*NAME_MAP
*3 adc_out[0]
*4 adc_out[1]
*5 adc_out[2]
*6 adc_out[3]
*7 adc_out[4]
*8 adc_out[5]
*9 adc_out[6]
*10 adc_out[7]
*11 clk
*12 comp
*13 comparator_clk
*14 dac_in[0]
*15 dac_in[1]
*16 dac_in[2]
*17 dac_in[3]
*18 dac_in[4]
*19 dac_in[5]
*20 dac_in[6]
*21 dac_in[7]
*22 dac_in_n[0]
*23 dac_in_n[1]
*24 dac_in_n[2]
*25 dac_in_n[3]
*26 dac_in_n[4]
*27 dac_in_n[5]
*28 dac_in_n[6]
*29 dac_in_n[7]
*30 rst_n
*31 _001_
*32 _002_
*33 _003_
*34 _004_
*35 _005_
*36 _006_
*37 _007_
*38 _008_
*39 _009_
*40 _010_
*41 _011_
*42 _012_
*43 _013_
*44 _014_
*45 _015_
*46 _016_
*47 _017_
*48 _018_
*49 _019_
*50 _020_
*51 _021_
*52 _022_
*53 _023_
*54 _024_
*55 _025_
*56 _026_
*57 _027_
*58 _028_
*59 _029_
*60 _030_
*61 _031_
*62 _032_
*63 _033_
*64 _034_
*65 _035_
*66 _036_
*67 _037_
*68 _038_
*69 _039_
*70 _040_
*71 _041_
*72 _042_
*73 _043_
*74 _044_
*75 _045_
*76 _046_
*77 _047_
*78 _048_
*79 _049_
*80 _050_
*81 _051_
*82 _052_
*83 _053_
*84 _054_
*85 _055_
*86 _056_
*87 _057_
*88 _058_
*89 _059_
*90 _060_
*91 _061_
*92 _062_
*93 _063_
*94 _064_
*95 _065_
*96 _066_
*97 _067_
*98 _068_
*99 _069_
*100 _070_
*101 _071_
*102 clknet_0_clk
*103 clknet_1_0__leaf_clk
*104 clknet_1_1__leaf_clk
*105 count\[0\]
*106 count\[1\]
*107 count\[2\]
*108 count\[3\]
*109 net1
*110 net10
*111 net11
*112 net12
*113 net13
*114 net14
*115 net15
*116 net16
*117 net17
*118 net18
*119 net19
*120 net2
*121 net20
*122 net21
*123 net22
*124 net23
*125 net24
*126 net25
*127 net26
*128 net27
*129 net28
*130 net29
*131 net3
*132 net30
*133 net31
*134 net32
*135 net33
*136 net34
*137 net35
*138 net36
*139 net37
*140 net38
*141 net39
*142 net4
*143 net40
*144 net41
*145 net42
*146 net43
*147 net44
*148 net5
*149 net6
*150 net7
*151 net8
*152 net9
*153 FILLER_0_109
*154 FILLER_0_113
*155 FILLER_0_125
*156 FILLER_0_137
*157 FILLER_0_141
*158 FILLER_0_15
*159 FILLER_0_153
*160 FILLER_0_165
*161 FILLER_0_169
*162 FILLER_0_181
*163 FILLER_0_192
*164 FILLER_0_197
*165 FILLER_0_209
*166 FILLER_0_213
*167 FILLER_0_219
*168 FILLER_0_223
*169 FILLER_0_225
*170 FILLER_0_237
*171 FILLER_0_249
*172 FILLER_0_253
*173 FILLER_0_265
*174 FILLER_0_27
*175 FILLER_0_273
*176 FILLER_0_281
*177 FILLER_0_29
*178 FILLER_0_3
*179 FILLER_0_41
*180 FILLER_0_53
*181 FILLER_0_57
*182 FILLER_0_69
*183 FILLER_0_81
*184 FILLER_0_85
*185 FILLER_0_97
*186 FILLER_1_104
*187 FILLER_1_129
*188 FILLER_1_148
*189 FILLER_1_15
*190 FILLER_1_160
*191 FILLER_1_169
*192 FILLER_1_181
*193 FILLER_1_199
*194 FILLER_1_207
*195 FILLER_1_225
*196 FILLER_1_233
*197 FILLER_1_251
*198 FILLER_1_263
*199 FILLER_1_27
*200 FILLER_1_275
*201 FILLER_1_279
*202 FILLER_1_281
*203 FILLER_1_3
*204 FILLER_1_39
*205 FILLER_1_51
*206 FILLER_1_55
*207 FILLER_1_57
*208 FILLER_1_63
*209 FILLER_1_71
*210 FILLER_1_92
*211 FILLER_2_100
*212 FILLER_2_120
*213 FILLER_2_15
*214 FILLER_2_155
*215 FILLER_2_163
*216 FILLER_2_191
*217 FILLER_2_195
*218 FILLER_2_197
*219 FILLER_2_227
*220 FILLER_2_243
*221 FILLER_2_251
*222 FILLER_2_261
*223 FILLER_2_27
*224 FILLER_2_273
*225 FILLER_2_285
*226 FILLER_2_29
*227 FILLER_2_3
*228 FILLER_2_41
*229 FILLER_2_53
*230 FILLER_2_76
*231 FILLER_2_82
*232 FILLER_2_90
*233 FILLER_2_96
*234 FILLER_3_109
*235 FILLER_3_113
*236 FILLER_3_131
*237 FILLER_3_15
*238 FILLER_3_151
*239 FILLER_3_157
*240 FILLER_3_163
*241 FILLER_3_167
*242 FILLER_3_169
*243 FILLER_3_175
*244 FILLER_3_187
*245 FILLER_3_199
*246 FILLER_3_223
*247 FILLER_3_233
*248 FILLER_3_245
*249 FILLER_3_257
*250 FILLER_3_269
*251 FILLER_3_27
*252 FILLER_3_277
*253 FILLER_3_281
*254 FILLER_3_3
*255 FILLER_3_39
*256 FILLER_3_51
*257 FILLER_3_55
*258 FILLER_3_57
*259 FILLER_3_73
*260 FILLER_3_85
*261 FILLER_3_97
*262 FILLER_4_103
*263 FILLER_4_124
*264 FILLER_4_136
*265 FILLER_4_145
*266 FILLER_4_15
*267 FILLER_4_155
*268 FILLER_4_164
*269 FILLER_4_172
*270 FILLER_4_178
*271 FILLER_4_190
*272 FILLER_4_197
*273 FILLER_4_209
*274 FILLER_4_221
*275 FILLER_4_233
*276 FILLER_4_253
*277 FILLER_4_265
*278 FILLER_4_27
*279 FILLER_4_277
*280 FILLER_4_285
*281 FILLER_4_29
*282 FILLER_4_3
*283 FILLER_4_41
*284 FILLER_4_53
*285 FILLER_4_65
*286 FILLER_4_77
*287 FILLER_4_83
*288 FILLER_4_91
*289 FILLER_5_103
*290 FILLER_5_107
*291 FILLER_5_111
*292 FILLER_5_113
*293 FILLER_5_117
*294 FILLER_5_143
*295 FILLER_5_147
*296 FILLER_5_169
*297 FILLER_5_175
*298 FILLER_5_18
*299 FILLER_5_221
*300 FILLER_5_225
*301 FILLER_5_231
*302 FILLER_5_245
*303 FILLER_5_255
*304 FILLER_5_267
*305 FILLER_5_279
*306 FILLER_5_281
*307 FILLER_5_30
*308 FILLER_5_38
*309 FILLER_5_57
*310 FILLER_5_6
*311 FILLER_5_66
*312 FILLER_5_81
*313 FILLER_5_99
*314 FILLER_6_116
*315 FILLER_6_128
*316 FILLER_6_15
*317 FILLER_6_152
*318 FILLER_6_160
*319 FILLER_6_172
*320 FILLER_6_184
*321 FILLER_6_197
*322 FILLER_6_220
*323 FILLER_6_232
*324 FILLER_6_238
*325 FILLER_6_244
*326 FILLER_6_253
*327 FILLER_6_265
*328 FILLER_6_27
*329 FILLER_6_277
*330 FILLER_6_285
*331 FILLER_6_29
*332 FILLER_6_3
*333 FILLER_6_41
*334 FILLER_6_53
*335 FILLER_6_65
*336 FILLER_6_73
*337 FILLER_7_102
*338 FILLER_7_110
*339 FILLER_7_113
*340 FILLER_7_120
*341 FILLER_7_126
*342 FILLER_7_134
*343 FILLER_7_15
*344 FILLER_7_155
*345 FILLER_7_169
*346 FILLER_7_183
*347 FILLER_7_195
*348 FILLER_7_202
*349 FILLER_7_206
*350 FILLER_7_221
*351 FILLER_7_225
*352 FILLER_7_263
*353 FILLER_7_27
*354 FILLER_7_275
*355 FILLER_7_279
*356 FILLER_7_281
*357 FILLER_7_3
*358 FILLER_7_39
*359 FILLER_7_57
*360 FILLER_7_69
*361 FILLER_7_77
*362 FILLER_8_114
*363 FILLER_8_122
*364 FILLER_8_145
*365 FILLER_8_15
*366 FILLER_8_153
*367 FILLER_8_157
*368 FILLER_8_165
*369 FILLER_8_191
*370 FILLER_8_195
*371 FILLER_8_197
*372 FILLER_8_226
*373 FILLER_8_232
*374 FILLER_8_253
*375 FILLER_8_264
*376 FILLER_8_27
*377 FILLER_8_276
*378 FILLER_8_29
*379 FILLER_8_3
*380 FILLER_8_41
*381 FILLER_8_69
*382 FILLER_8_81
*383 FILLER_8_85
*384 FILLER_8_97
*385 FILLER_9_10
*386 FILLER_9_102
*387 FILLER_9_110
*388 FILLER_9_113
*389 FILLER_9_121
*390 FILLER_9_133
*391 FILLER_9_141
*392 FILLER_9_153
*393 FILLER_9_159
*394 FILLER_9_167
*395 FILLER_9_169
*396 FILLER_9_173
*397 FILLER_9_178
*398 FILLER_9_190
*399 FILLER_9_201
*400 FILLER_9_209
*401 FILLER_9_216
*402 FILLER_9_225
*403 FILLER_9_248
*404 FILLER_9_26
*405 FILLER_9_265
*406 FILLER_9_273
*407 FILLER_9_281
*408 FILLER_9_29
*409 FILLER_9_45
*410 FILLER_9_53
*411 FILLER_9_57
*412 FILLER_9_64
*413 FILLER_9_76
*414 FILLER_9_83
*415 FILLER_9_85
*416 FILLER_9_97
*417 PHY_EDGE_ROW_0_Left_10
*418 PHY_EDGE_ROW_0_Right_0
*419 PHY_EDGE_ROW_1_Left_11
*420 PHY_EDGE_ROW_1_Right_1
*421 PHY_EDGE_ROW_2_Left_12
*422 PHY_EDGE_ROW_2_Right_2
*423 PHY_EDGE_ROW_3_Left_13
*424 PHY_EDGE_ROW_3_Right_3
*425 PHY_EDGE_ROW_4_Left_14
*426 PHY_EDGE_ROW_4_Right_4
*427 PHY_EDGE_ROW_5_Left_15
*428 PHY_EDGE_ROW_5_Right_5
*429 PHY_EDGE_ROW_6_Left_16
*430 PHY_EDGE_ROW_6_Right_6
*431 PHY_EDGE_ROW_7_Left_17
*432 PHY_EDGE_ROW_7_Right_7
*433 PHY_EDGE_ROW_8_Left_18
*434 PHY_EDGE_ROW_8_Right_8
*435 PHY_EDGE_ROW_9_Left_19
*436 PHY_EDGE_ROW_9_Right_9
*437 TAP_TAPCELL_ROW_0_20
*438 TAP_TAPCELL_ROW_0_21
*439 TAP_TAPCELL_ROW_0_22
*440 TAP_TAPCELL_ROW_0_23
*441 TAP_TAPCELL_ROW_0_24
*442 TAP_TAPCELL_ROW_0_25
*443 TAP_TAPCELL_ROW_0_26
*444 TAP_TAPCELL_ROW_0_27
*445 TAP_TAPCELL_ROW_0_28
*446 TAP_TAPCELL_ROW_0_29
*447 TAP_TAPCELL_ROW_1_30
*448 TAP_TAPCELL_ROW_1_31
*449 TAP_TAPCELL_ROW_1_32
*450 TAP_TAPCELL_ROW_1_33
*451 TAP_TAPCELL_ROW_1_34
*452 TAP_TAPCELL_ROW_2_35
*453 TAP_TAPCELL_ROW_2_36
*454 TAP_TAPCELL_ROW_2_37
*455 TAP_TAPCELL_ROW_2_38
*456 TAP_TAPCELL_ROW_2_39
*457 TAP_TAPCELL_ROW_3_40
*458 TAP_TAPCELL_ROW_3_41
*459 TAP_TAPCELL_ROW_3_42
*460 TAP_TAPCELL_ROW_3_43
*461 TAP_TAPCELL_ROW_3_44
*462 TAP_TAPCELL_ROW_4_45
*463 TAP_TAPCELL_ROW_4_46
*464 TAP_TAPCELL_ROW_4_47
*465 TAP_TAPCELL_ROW_4_48
*466 TAP_TAPCELL_ROW_4_49
*467 TAP_TAPCELL_ROW_5_50
*468 TAP_TAPCELL_ROW_5_51
*469 TAP_TAPCELL_ROW_5_52
*470 TAP_TAPCELL_ROW_5_53
*471 TAP_TAPCELL_ROW_5_54
*472 TAP_TAPCELL_ROW_6_55
*473 TAP_TAPCELL_ROW_6_56
*474 TAP_TAPCELL_ROW_6_57
*475 TAP_TAPCELL_ROW_6_58
*476 TAP_TAPCELL_ROW_6_59
*477 TAP_TAPCELL_ROW_7_60
*478 TAP_TAPCELL_ROW_7_61
*479 TAP_TAPCELL_ROW_7_62
*480 TAP_TAPCELL_ROW_7_63
*481 TAP_TAPCELL_ROW_7_64
*482 TAP_TAPCELL_ROW_8_65
*483 TAP_TAPCELL_ROW_8_66
*484 TAP_TAPCELL_ROW_8_67
*485 TAP_TAPCELL_ROW_8_68
*486 TAP_TAPCELL_ROW_8_69
*487 TAP_TAPCELL_ROW_9_70
*488 TAP_TAPCELL_ROW_9_71
*489 TAP_TAPCELL_ROW_9_72
*490 TAP_TAPCELL_ROW_9_73
*491 TAP_TAPCELL_ROW_9_74
*492 TAP_TAPCELL_ROW_9_75
*493 TAP_TAPCELL_ROW_9_76
*494 TAP_TAPCELL_ROW_9_77
*495 TAP_TAPCELL_ROW_9_78
*496 TAP_TAPCELL_ROW_9_79
*497 _072_
*498 _073_
*499 _074_
*500 _075_
*501 _076_
*502 _077_
*503 _078_
*504 _079_
*505 _080_
*506 _081_
*507 _082_
*508 _083__1
*509 _084_
*510 _085_
*511 _086_
*512 _087_
*513 _088_
*514 _089_
*515 _090_
*516 _091_
*517 _092_
*518 _093_
*519 _094_
*520 _095_
*521 _096_
*522 _097_
*523 _098_
*524 _099_
*525 _100_
*526 _101_
*527 _102_
*528 _103_
*529 _104_
*530 _105_
*531 _106_
*532 _107_
*533 _108_
*534 _109_
*535 _110_
*536 _111_
*537 _112_
*538 _113_
*539 _114_
*540 _115_
*541 _116_
*542 _117_
*543 _118_
*544 _119_
*545 _120_
*546 _121_
*547 _122_
*548 _123_
*549 _124_
*550 _125_
*551 _126_
*552 _127_
*553 _128_
*554 _129_
*555 _130_
*556 _131_
*557 _132_
*558 _133_
*559 _134_
*560 _135_
*561 _136_
*562 _137_
*563 _138_
*564 _139_
*565 _140_
*566 _141_
*567 _142_
*568 _143_
*569 _144_
*570 _145_
*571 _146_
*572 _147_
*573 _148_
*574 _149_
*575 _150_
*576 _151_
*577 _152_
*578 _153_
*579 _154_
*580 _155_
*581 _156_
*582 _157_
*583 _158_
*584 _159_
*585 _160_
*586 _161_
*587 _162_
*588 _163_
*589 _164_
*590 _165_
*591 _166_
*592 _167_
*593 _168_
*594 _169_
*595 _170_
*596 _171_
*597 _172_
*598 clkbuf_0_clk
*599 clkbuf_1_0__f_clk
*600 clkbuf_1_1__f_clk
*601 clkload0
*602 fanout28
*603 fanout31
*604 fanout32
*605 fanout33
*606 fanout34
*607 fanout35
*608 hold1
*609 hold2
*610 hold3
*611 hold4
*612 hold5
*613 hold6
*614 hold7
*615 hold8
*616 input1
*617 input2
*618 max_cap29
*619 output10
*620 output11
*621 output12
*622 output13
*623 output14
*624 output15
*625 output16
*626 output17
*627 output18
*628 output19
*629 output20
*630 output21
*631 output22
*632 output23
*633 output24
*634 output25
*635 output26
*636 output27
*637 output3
*638 output4
*639 output5
*640 output6
*641 output7
*642 output8
*643 output9
*644 wire30

*PORTS
adc_out[0] O
adc_out[1] O
adc_out[2] O
adc_out[3] O
adc_out[4] O
adc_out[5] O
adc_out[6] O
adc_out[7] O
clk I
comp I
comparator_clk O
dac_in[0] O
dac_in[1] O
dac_in[2] O
dac_in[3] O
dac_in[4] O
dac_in[5] O
dac_in[6] O
dac_in[7] O
dac_in_n[0] O
dac_in_n[1] O
dac_in_n[2] O
dac_in_n[3] O
dac_in_n[4] O
dac_in_n[5] O
dac_in_n[6] O
dac_in_n[7] O
rst_n I

*D_NET *3 0.00162597
*CONN
*P adc_out[0] O
*I *637:X O *D sky130_fd_sc_hd__buf_2
*CAP
1 adc_out[0] 0.000812986
2 *637:X 0.000812986
3 adc_out[0] adc_out[1] 0
*RES
1 *637:X adc_out[0] 26.3811 
*END

*D_NET *4 0.0014803
*CONN
*P adc_out[1] O
*I *638:X O *D sky130_fd_sc_hd__buf_2
*CAP
1 adc_out[1] 0.000740149
2 *638:X 0.000740149
3 adc_out[1] adc_out[2] 0
4 adc_out[0] adc_out[1] 0
*RES
1 *638:X adc_out[1] 20.6061 
*END

*D_NET *5 0.000616734
*CONN
*P adc_out[2] O
*I *639:X O *D sky130_fd_sc_hd__buf_2
*CAP
1 adc_out[2] 0.000308367
2 *639:X 0.000308367
3 adc_out[2] adc_out[3] 0
4 adc_out[1] adc_out[2] 0
*RES
1 *639:X adc_out[2] 18.4346 
*END

*D_NET *6 0.000616128
*CONN
*P adc_out[3] O
*I *640:X O *D sky130_fd_sc_hd__buf_2
*CAP
1 adc_out[3] 0.000308064
2 *640:X 0.000308064
3 adc_out[3] adc_out[4] 0
4 adc_out[2] adc_out[3] 0
*RES
1 *640:X adc_out[3] 18.4346 
*END

*D_NET *7 0.000622107
*CONN
*P adc_out[4] O
*I *641:X O *D sky130_fd_sc_hd__buf_2
*CAP
1 adc_out[4] 0.000311054
2 *641:X 0.000311054
3 adc_out[4] adc_out[5] 0
4 adc_out[3] adc_out[4] 0
*RES
1 *641:X adc_out[4] 18.4346 
*END

*D_NET *8 0.000624608
*CONN
*P adc_out[5] O
*I *642:X O *D sky130_fd_sc_hd__buf_2
*CAP
1 adc_out[5] 0.000312304
2 *642:X 0.000312304
3 adc_out[5] adc_out[6] 0
4 adc_out[5] *111:42 0
5 adc_out[4] adc_out[5] 0
*RES
1 *642:X adc_out[5] 18.4346 
*END

*D_NET *9 0.000958743
*CONN
*P adc_out[6] O
*I *643:X O *D sky130_fd_sc_hd__buf_2
*CAP
1 adc_out[6] 0.000390938
2 *643:X 0.000390938
3 adc_out[6] adc_out[7] 0.000145347
4 adc_out[6] *111:42 0
5 adc_out[6] *128:31 3.15196e-05
6 adc_out[5] adc_out[6] 0
*RES
1 *643:X adc_out[6] 19.33 
*END

*D_NET *10 0.00157727
*CONN
*P adc_out[7] O
*I *619:X O *D sky130_fd_sc_hd__buf_2
*CAP
1 adc_out[7] 0.000632332
2 *619:X 0.000632332
3 adc_out[7] comparator_clk 0
4 adc_out[7] dac_in_n[7] 6.76337e-05
5 adc_out[7] *128:31 9.96215e-05
6 adc_out[6] adc_out[7] 0.000145347
*RES
1 *619:X adc_out[7] 24.0456 
*END

*D_NET *11 0.00928304
*CONN
*P clk I
*I *598:A I *D sky130_fd_sc_hd__clkbuf_16
*CAP
1 clk 0.00406374
2 *598:A 0.00406374
3 *598:A *531:C 0.000326686
4 *598:A *538:A_N 0.000160643
5 *598:A *605:A 0
6 *598:A *607:A 0
7 *598:A *105:8 0.000428612
8 *598:A *105:17 2.21972e-05
9 *598:A *136:12 0.000217428
10 *598:A *137:31 0
*RES
1 clk *598:A 44.3429 
*END

*D_NET *12 0.000751213
*CONN
*P comp I
*I *616:A I *D sky130_fd_sc_hd__buf_1
*CAP
1 comp 0.000375606
2 *616:A 0.000375606
*RES
1 comp *616:A 21.8174 
*END

*D_NET *13 0.0019147
*CONN
*P comparator_clk O
*I *620:X O *D sky130_fd_sc_hd__buf_2
*CAP
1 comparator_clk 0.000957351
2 *620:X 0.000957351
3 comparator_clk dac_in_n[6] 0
4 comparator_clk dac_in_n[7] 0
5 adc_out[7] comparator_clk 0
*RES
1 *620:X comparator_clk 25.0692 
*END

*D_NET *14 0.00138349
*CONN
*P dac_in[0] O
*I *621:X O *D sky130_fd_sc_hd__buf_2
*CAP
1 dac_in[0] 0.0005665
2 *621:X 0.0005665
3 dac_in[0] *617:A 0.000250492
4 dac_in[0] *120:10 0
*RES
1 *621:X dac_in[0] 25.6214 
*END

*D_NET *15 0.00110283
*CONN
*P dac_in[1] O
*I *622:X O *D sky130_fd_sc_hd__buf_2
*CAP
1 dac_in[1] 0.000551415
2 *622:X 0.000551415
*RES
1 *622:X dac_in[1] 24.675 
*END

*D_NET *16 0.0013515
*CONN
*P dac_in[2] O
*I *623:X O *D sky130_fd_sc_hd__buf_2
*CAP
1 dac_in[2] 0.000644101
2 *623:X 0.000644101
3 dac_in[2] *621:A 5.52238e-05
4 dac_in[2] *113:31 8.07137e-06
*RES
1 *623:X dac_in[2] 25.6214 
*END

*D_NET *17 0.00110283
*CONN
*P dac_in[3] O
*I *624:X O *D sky130_fd_sc_hd__buf_2
*CAP
1 dac_in[3] 0.000551415
2 *624:X 0.000551415
*RES
1 *624:X dac_in[3] 24.675 
*END

*D_NET *18 0.00110283
*CONN
*P dac_in[4] O
*I *625:X O *D sky130_fd_sc_hd__buf_2
*CAP
1 dac_in[4] 0.000551415
2 *625:X 0.000551415
*RES
1 *625:X dac_in[4] 24.675 
*END

*D_NET *19 0.00110283
*CONN
*P dac_in[5] O
*I *626:X O *D sky130_fd_sc_hd__buf_2
*CAP
1 dac_in[5] 0.000551415
2 *626:X 0.000551415
*RES
1 *626:X dac_in[5] 24.675 
*END

*D_NET *20 0.00110283
*CONN
*P dac_in[6] O
*I *627:X O *D sky130_fd_sc_hd__buf_2
*CAP
1 dac_in[6] 0.000551415
2 *627:X 0.000551415
*RES
1 *627:X dac_in[6] 24.675 
*END

*D_NET *21 0.00110283
*CONN
*P dac_in[7] O
*I *628:X O *D sky130_fd_sc_hd__buf_2
*CAP
1 dac_in[7] 0.000551415
2 *628:X 0.000551415
3 dac_in[7] *120:16 0
*RES
1 *628:X dac_in[7] 24.675 
*END

*D_NET *22 0.00113013
*CONN
*P dac_in_n[0] O
*I *629:X O *D sky130_fd_sc_hd__buf_2
*CAP
1 dac_in_n[0] 0.000565067
2 *629:X 0.000565067
3 dac_in_n[0] *541:B1 0
*RES
1 *629:X dac_in_n[0] 25.0857 
*END

*D_NET *23 0.00113387
*CONN
*P dac_in_n[1] O
*I *630:X O *D sky130_fd_sc_hd__buf_2
*CAP
1 dac_in_n[1] 0.000564704
2 *630:X 0.000564704
3 dac_in_n[1] *630:A 4.46186e-06
*RES
1 *630:X dac_in_n[1] 25.0857 
*END

*D_NET *24 0.00147115
*CONN
*P dac_in_n[2] O
*I *631:X O *D sky130_fd_sc_hd__buf_2
*CAP
1 dac_in_n[2] 0.000700702
2 *631:X 0.000700702
3 dac_in_n[2] *118:34 6.97494e-05
*RES
1 *631:X dac_in_n[2] 26.8536 
*END

*D_NET *25 0.00123902
*CONN
*P dac_in_n[3] O
*I *632:X O *D sky130_fd_sc_hd__buf_2
*CAP
1 dac_in_n[3] 0.000601146
2 *632:X 0.000601146
3 dac_in_n[3] *118:34 3.67257e-05
*RES
1 *632:X dac_in_n[3] 25.2107 
*END

*D_NET *26 0.00113013
*CONN
*P dac_in_n[4] O
*I *633:X O *D sky130_fd_sc_hd__buf_2
*CAP
1 dac_in_n[4] 0.000565067
2 *633:X 0.000565067
*RES
1 *633:X dac_in_n[4] 25.0857 
*END

*D_NET *27 0.00197829
*CONN
*P dac_in_n[5] O
*I *634:X O *D sky130_fd_sc_hd__buf_2
*CAP
1 dac_in_n[5] 0.000899465
2 *634:X 0.000899465
3 dac_in_n[5] *500:A 8.37135e-05
4 dac_in_n[5] *524:A 7.43578e-06
5 dac_in_n[5] *611:A 3.48705e-05
6 dac_in_n[5] *634:A 5.33433e-05
*RES
1 *634:X dac_in_n[5] 29.7286 
*END

*D_NET *28 0.00113013
*CONN
*P dac_in_n[6] O
*I *635:X O *D sky130_fd_sc_hd__buf_2
*CAP
1 dac_in_n[6] 0.000565067
2 *635:X 0.000565067
3 comparator_clk dac_in_n[6] 0
*RES
1 *635:X dac_in_n[6] 25.0857 
*END

*D_NET *29 0.00110037
*CONN
*P dac_in_n[7] O
*I *636:X O *D sky130_fd_sc_hd__buf_2
*CAP
1 dac_in_n[7] 0.000516367
2 *636:X 0.000516367
3 adc_out[7] dac_in_n[7] 6.76337e-05
4 comparator_clk dac_in_n[7] 0
*RES
1 *636:X dac_in_n[7] 24.2643 
*END

*D_NET *30 0.00134984
*CONN
*P rst_n I
*I *617:A I *D sky130_fd_sc_hd__buf_1
*CAP
1 rst_n 0.000528526
2 *617:A 0.000528526
3 *617:A *621:A 4.22908e-05
4 dac_in[0] *617:A 0.000250492
*RES
1 rst_n *617:A 25.6401 
*END

*D_NET *31 0.000382131
*CONN
*I *577:D I *D sky130_fd_sc_hd__dfxtp_1
*I *509:X O *D sky130_fd_sc_hd__and2b_1
*CAP
1 *577:D 0.000106587
2 *509:X 0.000106587
3 *577:D *509:A_N 0.000168957
*RES
1 *509:X *577:D 20.658 
*END

*D_NET *32 0.000544534
*CONN
*I *578:D I *D sky130_fd_sc_hd__dfxtp_1
*I *513:X O *D sky130_fd_sc_hd__o211a_1
*CAP
1 *578:D 0.000180255
2 *513:X 0.000180255
3 *578:D *513:B1 5.52302e-05
4 *578:D *581:CLK 3.92757e-05
5 *578:D *104:51 8.95186e-05
*RES
1 *513:X *578:D 30.6357 
*END

*D_NET *33 0.000410857
*CONN
*I *579:D I *D sky130_fd_sc_hd__dfxtp_1
*I *515:X O *D sky130_fd_sc_hd__o211a_1
*CAP
1 *579:D 0.000123843
2 *515:X 0.000123843
3 *579:D *515:B1 0.000127446
4 *579:D *80:49 1.92905e-05
5 *579:D *104:42 1.64343e-05
6 *579:D *132:12 0
*RES
1 *515:X *579:D 29.9438 
*END

*D_NET *34 0.000358674
*CONN
*I *580:D I *D sky130_fd_sc_hd__dfxtp_1
*I *517:X O *D sky130_fd_sc_hd__o211a_1
*CAP
1 *580:D 0.000142999
2 *517:X 0.000142999
3 *580:D *517:B1 1.92789e-05
4 *580:D *104:79 5.33978e-05
*RES
1 *517:X *580:D 29.9438 
*END

*D_NET *35 0.000264498
*CONN
*I *581:D I *D sky130_fd_sc_hd__dfxtp_1
*I *519:X O *D sky130_fd_sc_hd__o211a_1
*CAP
1 *581:D 0.000128769
2 *519:X 0.000128769
3 *581:D *513:A1 0
4 *581:D *519:A1 2.8266e-06
5 *581:D *581:CLK 4.1331e-06
6 *581:D *80:81 0
7 *581:D *132:29 0
*RES
1 *519:X *581:D 29.7116 
*END

*D_NET *36 0.000256934
*CONN
*I *582:D I *D sky130_fd_sc_hd__dfxtp_1
*I *521:X O *D sky130_fd_sc_hd__o211a_1
*CAP
1 *582:D 9.73896e-05
2 *521:X 9.73896e-05
3 *582:D *104:79 4.1331e-06
4 *582:D *104:88 5.80217e-05
5 *582:D *130:21 0
*RES
1 *521:X *582:D 29.7116 
*END

*D_NET *37 0.000302235
*CONN
*I *583:D I *D sky130_fd_sc_hd__dfxtp_1
*I *523:X O *D sky130_fd_sc_hd__o211a_1
*CAP
1 *583:D 4.34846e-05
2 *523:X 4.34846e-05
3 *583:D *522:A 9.57507e-06
4 *583:D *583:CLK 3.18676e-05
5 *583:D *128:31 0.000173823
*RES
1 *523:X *583:D 20.2295 
*END

*D_NET *38 0.000550537
*CONN
*I *584:D I *D sky130_fd_sc_hd__dfxtp_1
*I *525:X O *D sky130_fd_sc_hd__o211a_1
*CAP
1 *584:D 0.000124212
2 *525:X 0.000124212
3 *584:D *524:B 0.000153054
4 *584:D *525:A2 0
5 *584:D *619:A 0.000149059
*RES
1 *525:X *584:D 30.9438 
*END

*D_NET *39 0.000409384
*CONN
*I *610:A I *D sky130_fd_sc_hd__dlygate4sd3_1
*I *527:X O *D sky130_fd_sc_hd__o211a_1
*CAP
1 *610:A 0.00015674
2 *527:X 0.00015674
3 *610:A *527:A2 0
4 *610:A *116:10 4.25716e-05
5 *610:A *117:22 5.33334e-05
*RES
1 *527:X *610:A 30.1893 
*END

*D_NET *40 0.000584733
*CONN
*I *586:D I *D sky130_fd_sc_hd__dfxtp_1
*I *540:X O *D sky130_fd_sc_hd__o21a_1
*CAP
1 *586:D 6.89889e-05
2 *540:X 6.89889e-05
3 *586:D *109:8 0.000346131
4 *586:D *112:31 0.000100624
*RES
1 *540:X *586:D 21.8723 
*END

*D_NET *41 0.00144426
*CONN
*I *587:D I *D sky130_fd_sc_hd__dfxtp_1
*I *545:Y O *D sky130_fd_sc_hd__a31oi_1
*CAP
1 *587:D 0.000208717
2 *545:Y 0.000208717
3 *587:D *515:A1 0
4 *587:D *79:20 0.000134043
5 *587:D *80:15 0.000315152
6 *587:D *80:40 0.000322393
7 *587:D *90:22 0.00015304
8 *587:D *113:8 0.000102197
9 *587:D *113:29 0
*RES
1 *545:Y *587:D 35.4616 
*END

*D_NET *42 0.00193894
*CONN
*I *588:D I *D sky130_fd_sc_hd__dfxtp_1
*I *550:X O *D sky130_fd_sc_hd__o31a_1
*CAP
1 *588:D 0.000738969
2 *550:X 0.000738969
3 *588:D *549:A_N 0.000173804
4 *588:D *550:A2 0
5 *588:D *107:60 0
6 *588:D *109:24 9.25014e-06
7 *588:D *114:37 0.000277952
*RES
1 *550:X *588:D 41.3009 
*END

*D_NET *43 0.00608451
*CONN
*I *589:D I *D sky130_fd_sc_hd__dfxtp_1
*I *554:X O *D sky130_fd_sc_hd__o21a_1
*CAP
1 *589:D 0.000519451
2 *554:X 0.00133713
3 *43:22 0.00185659
4 *589:D *103:53 0.00113913
5 *589:D *103:59 0.00013001
6 *43:22 *568:B1 0.000109183
7 *43:22 *592:D 0.000103323
8 *43:22 *593:CLK 2.28598e-05
9 *43:22 *593:D 1.64343e-05
10 *43:22 *60:88 0
11 *43:22 *103:51 0.000752673
12 *43:22 *103:53 9.77274e-05
*RES
1 *554:X *43:22 38.6571 
2 *43:22 *589:D 21.1973 
*END

*D_NET *44 0.00229322
*CONN
*I *590:D I *D sky130_fd_sc_hd__dfxtp_1
*I *558:Y O *D sky130_fd_sc_hd__a31oi_1
*CAP
1 *590:D 0.000784603
2 *558:Y 0.000784603
3 *590:D *517:A1 0.000344214
4 *590:D *600:A 0.000268403
5 *590:D *104:10 8.85439e-05
6 *590:D *104:110 2.28499e-05
*RES
1 *558:Y *590:D 31.0509 
*END

*D_NET *45 0.00121471
*CONN
*I *591:D I *D sky130_fd_sc_hd__dfxtp_1
*I *562:Y O *D sky130_fd_sc_hd__a31oi_1
*CAP
1 *591:D 0.000255561
2 *562:Y 0.000255561
3 *591:D *499:A 0.000317082
4 *591:D *527:A1 0.00017088
5 *591:D *541:A2 1.02504e-05
6 *591:D *567:B1 0
7 *591:D *591:CLK 0.000127067
8 *591:D *113:29 4.75812e-05
9 *591:D *119:23 2.14757e-05
10 *591:D *124:24 9.25014e-06
*RES
1 *562:Y *591:D 33.8545 
*END

*D_NET *46 0.000419312
*CONN
*I *592:D I *D sky130_fd_sc_hd__dfxtp_1
*I *566:X O *D sky130_fd_sc_hd__o31a_1
*CAP
1 *592:D 0.000106333
2 *566:X 0.000106333
3 *592:D *563:B1 0
4 *592:D *103:51 0.000103323
5 *43:22 *592:D 0.000103323
*RES
1 *566:X *592:D 29.9259 
*END

*D_NET *47 0.000217641
*CONN
*I *593:D I *D sky130_fd_sc_hd__dfxtp_1
*I *568:X O *D sky130_fd_sc_hd__a211o_1
*CAP
1 *593:D 0.000100603
2 *568:X 0.000100603
3 *593:D *568:B1 0
4 *43:22 *593:D 1.64343e-05
*RES
1 *568:X *593:D 29.1045 
*END

*D_NET *48 0.000370693
*CONN
*I *594:D I *D sky130_fd_sc_hd__dfxtp_1
*I *570:X O *D sky130_fd_sc_hd__and3_1
*CAP
1 *594:D 7.88948e-05
2 *570:X 7.88948e-05
3 *594:D *568:C1 0.000102545
4 *594:D *605:A 8.42801e-05
5 *594:D *90:22 2.60782e-05
*RES
1 *570:X *594:D 29.7473 
*END

*D_NET *49 0.000409395
*CONN
*I *595:D I *D sky130_fd_sc_hd__dfxtp_1
*I *572:X O *D sky130_fd_sc_hd__and3_1
*CAP
1 *595:D 0.000152533
2 *572:X 0.000152533
3 *595:D *576:B1 7.01199e-06
4 *595:D *595:CLK 1.64343e-05
5 *595:D *604:A 2.56601e-05
6 *595:D *89:16 5.52238e-05
7 *595:D *103:16 0
*RES
1 *572:X *595:D 29.9438 
*END

*D_NET *50 0.000287528
*CONN
*I *596:D I *D sky130_fd_sc_hd__dfxtp_2
*I *574:X O *D sky130_fd_sc_hd__and3_1
*CAP
1 *596:D 0.000138754
2 *574:X 0.000138754
3 *596:D *534:C 0
4 *596:D *576:A1 0
5 *596:D *576:B1 1.00208e-05
6 *596:D *107:10 0
*RES
1 *574:X *596:D 29.7652 
*END

*D_NET *51 0.000727085
*CONN
*I *597:D I *D sky130_fd_sc_hd__dfxtp_1
*I *576:Y O *D sky130_fd_sc_hd__a21oi_1
*CAP
1 *597:D 0.000363542
2 *576:Y 0.000363542
3 *597:D *575:A 0
4 *597:D *596:CLK 0
*RES
1 *576:Y *597:D 32.783 
*END

*D_NET *52 0.00190348
*CONN
*I *565:B1 I *D sky130_fd_sc_hd__o211a_1
*I *549:C I *D sky130_fd_sc_hd__and4bb_1
*I *542:X O *D sky130_fd_sc_hd__and4bb_1
*CAP
1 *565:B1 0.000119995
2 *549:C 0.000179759
3 *542:X 0
4 *52:4 0.000299754
5 *549:C *498:A 0.000266479
6 *549:C *542:A_N 9.71197e-05
7 *549:C *542:D 5.52238e-05
8 *549:C *548:A 5.65661e-05
9 *549:C *115:32 0.000413332
10 *549:C *129:82 5.33005e-05
11 *565:B1 *498:A 9.71197e-05
12 *565:B1 *547:C_N 2.28428e-05
13 *565:B1 *565:A1 9.67416e-05
14 *565:B1 *114:37 5.86416e-05
15 *565:B1 *129:82 8.66063e-05
*RES
1 *542:X *52:4 9.3 
2 *52:4 *549:C 15.175 
3 *52:4 *565:B1 21.8 
*END

*D_NET *53 0.00153894
*CONN
*I *545:A2 I *D sky130_fd_sc_hd__a31oi_1
*I *543:X O *D sky130_fd_sc_hd__or4_1
*CAP
1 *545:A2 0.000407218
2 *543:X 0.000407218
3 *545:A2 *510:A 5.03772e-05
4 *545:A2 *510:C 5.71472e-05
5 *545:A2 *530:B 2.58821e-05
6 *545:A2 *545:A3 3.18676e-05
7 *545:A2 *79:20 0.000180855
8 *545:A2 *135:16 4.58976e-05
9 *545:A2 *137:31 0.000332473
*RES
1 *543:X *545:A2 27.6714 
*END

*D_NET *54 0.000333913
*CONN
*I *545:A3 I *D sky130_fd_sc_hd__a31oi_1
*I *544:Y O *D sky130_fd_sc_hd__nand3_1
*CAP
1 *545:A3 6.8847e-05
2 *544:Y 6.8847e-05
3 *545:A3 *506:A 6.65398e-05
4 *545:A3 *545:A1 4.25809e-05
5 *545:A3 *79:20 5.52302e-05
6 *545:A2 *545:A3 3.18676e-05
*RES
1 *544:Y *545:A3 29.7786 
*END

*D_NET *55 0.00128017
*CONN
*I *550:A1 I *D sky130_fd_sc_hd__o31a_1
*I *546:X O *D sky130_fd_sc_hd__o41a_1
*CAP
1 *550:A1 0.00018966
2 *546:X 0.00018966
3 *550:A1 *537:A_N 2.89114e-05
4 *550:A1 *537:B 1.39726e-05
5 *550:A1 *540:A2 0.000639903
6 *550:A1 *540:B1 1.32552e-05
7 *550:A1 *550:A2 5.52238e-05
8 *550:A1 *550:A3 7.31062e-05
9 *550:A1 *98:10 5.03772e-05
10 *550:A1 *134:43 2.60984e-05
*RES
1 *546:X *550:A1 24.9036 
*END

*D_NET *56 0.00621285
*CONN
*I *548:B I *D sky130_fd_sc_hd__and2_1
*I *551:A2 I *D sky130_fd_sc_hd__a21oi_1
*I *553:A3 I *D sky130_fd_sc_hd__a32o_1
*I *567:A1 I *D sky130_fd_sc_hd__a21oi_1
*I *564:A I *D sky130_fd_sc_hd__and2_1
*I *547:Y O *D sky130_fd_sc_hd__nor3b_2
*CAP
1 *548:B 0
2 *551:A2 0.00010086
3 *553:A3 0
4 *567:A1 4.90179e-05
5 *564:A 0
6 *547:Y 0.0001556
7 *56:40 0.00015561
8 *56:25 0.000545271
9 *56:14 0.00117495
10 *56:8 0.000889051
11 *551:A2 *551:A1 0.000224583
12 *551:A2 *553:B1 2.39852e-05
13 *551:A2 *553:B2 3.18676e-05
14 *551:A2 *554:A1 1.74903e-05
15 *551:A2 *78:67 4.71204e-05
16 *551:A2 *124:24 3.99614e-06
17 *567:A1 *554:B1 7.48927e-06
18 *567:A1 *60:88 0.000103775
19 *567:A1 *120:16 5.36379e-05
20 *56:8 *107:60 0.000142856
21 *56:14 *547:A 2.28499e-05
22 *56:14 *554:B1 4.27437e-05
23 *56:14 *564:B 2.89114e-05
24 *56:14 *565:A2 0.000481575
25 *56:14 *565:C1 7.31299e-05
26 *56:14 *566:A2 2.95641e-05
27 *56:14 *566:A3 0.000270326
28 *56:14 *566:B1 9.7659e-05
29 *56:14 *568:A2 3.98462e-05
30 *56:14 *107:60 4.35452e-05
31 *56:14 *114:37 0.000573719
32 *56:25 *554:A1 1.33343e-05
33 *56:25 *554:A2 1.39841e-05
34 *56:25 *554:B1 0.000245316
35 *56:25 *568:A2 0.000380687
36 *56:25 *78:67 0
37 *56:40 *554:A1 0.000128496
*RES
1 *547:Y *56:8 11.8 
2 *56:8 *56:14 16.8929 
3 *56:14 *564:A 9.3 
4 *56:14 *56:25 10.125 
5 *56:25 *567:A1 20.0679 
6 *56:25 *56:40 1.35714 
7 *56:40 *553:A3 9.3 
8 *56:40 *551:A2 12.7464 
9 *56:8 *548:B 9.3 
*END

*D_NET *57 0.000749077
*CONN
*I *550:A2 I *D sky130_fd_sc_hd__o31a_1
*I *548:X O *D sky130_fd_sc_hd__and2_1
*CAP
1 *550:A2 0.000302251
2 *548:X 0.000302251
3 *550:A2 *540:B1 1.74352e-05
4 *550:A2 *550:A3 7.43578e-06
5 *550:A2 *550:B1 9.25014e-06
6 *550:A2 *107:27 0
7 *550:A2 *107:60 0
8 *550:A2 *109:24 0
9 *550:A2 *114:37 5.52302e-05
10 *550:A1 *550:A2 5.52238e-05
11 *588:D *550:A2 0
*RES
1 *548:X *550:A2 32.7429 
*END

*D_NET *58 0.000834749
*CONN
*I *550:A3 I *D sky130_fd_sc_hd__o31a_1
*I *549:X O *D sky130_fd_sc_hd__and4bb_1
*CAP
1 *550:A3 0.000172638
2 *549:X 0.000172638
3 *550:A3 *540:B1 5.52238e-05
4 *550:A3 *542:A_N 0.00017309
5 *550:A3 *107:27 0.000171368
6 *550:A3 *107:60 9.25014e-06
7 *550:A1 *550:A3 7.31062e-05
8 *550:A2 *550:A3 7.43578e-06
*RES
1 *549:X *550:A3 32.0286 
*END

*D_NET *59 0.00121288
*CONN
*I *554:A1 I *D sky130_fd_sc_hd__o21a_1
*I *551:Y O *D sky130_fd_sc_hd__a21oi_1
*CAP
1 *554:A1 0.00034365
2 *551:Y 0.00034365
3 *554:A1 *554:A2 3.18676e-05
4 *554:A1 *78:67 0.00033439
5 *551:A2 *554:A1 1.74903e-05
6 *56:25 *554:A1 1.33343e-05
7 *56:40 *554:A1 0.000128496
*RES
1 *551:Y *554:A1 24.5107 
*END

*D_NET *60 0.0107701
*CONN
*I *553:B1 I *D sky130_fd_sc_hd__a32o_1
*I *567:A2 I *D sky130_fd_sc_hd__a21oi_1
*I *557:A2 I *D sky130_fd_sc_hd__a21o_1
*I *559:A2 I *D sky130_fd_sc_hd__a21o_1
*I *561:C I *D sky130_fd_sc_hd__nand3_1
*I *556:B I *D sky130_fd_sc_hd__nand2_1
*I *564:B I *D sky130_fd_sc_hd__and2_1
*I *555:C_N I *D sky130_fd_sc_hd__or3b_1
*I *552:Y O *D sky130_fd_sc_hd__nor2_2
*CAP
1 *553:B1 0.000246734
2 *567:A2 0
3 *557:A2 6.61554e-06
4 *559:A2 0
5 *561:C 0
6 *556:B 0.000155927
7 *564:B 0.000327779
8 *555:C_N 0.000216205
9 *552:Y 0
10 *60:88 0.000575355
11 *60:70 0.000222912
12 *60:51 0.000316249
13 *60:36 0.00089718
14 *60:6 0.00106518
15 *60:4 0.00149112
16 *553:B1 *506:A 0
17 *553:B1 *551:A1 1.437e-05
18 *553:B1 *567:B1 0.000184745
19 *553:B1 *568:B1 0.000108091
20 *553:B1 *78:59 2.06112e-05
21 *553:B1 *78:67 1.43404e-05
22 *553:B1 *119:23 0.000109609
23 *553:B1 *120:16 0
24 *555:C_N *89:76 0.00017309
25 *555:C_N *129:80 0
26 *555:C_N *133:74 0.000119125
27 *556:B *558:A2 5.10822e-05
28 *556:B *602:A 4.88637e-05
29 *556:B *99:21 0.000186662
30 *556:B *99:27 0
31 *556:B *113:29 5.26091e-05
32 *556:B *114:51 0.000250932
33 *557:A2 *557:A1 5.71472e-05
34 *557:A2 *567:B1 2.44318e-05
35 *564:B *554:B1 4.46186e-06
36 *564:B *563:A1 0
37 *564:B *568:A2 5.52302e-05
38 *564:B *62:12 3.34366e-05
39 *564:B *89:76 0
40 *564:B *103:49 0
41 *564:B *107:60 7.22604e-05
42 *60:6 *62:12 0.00104039
43 *60:6 *133:74 1.98839e-05
44 *60:36 *62:12 0.00128853
45 *60:51 *558:A2 2.84494e-05
46 *60:51 *558:A3 3.33721e-05
47 *60:51 *561:B 4.6025e-06
48 *60:51 *113:29 5.84592e-05
49 *60:51 *115:32 1.7845e-05
50 *60:70 *557:A1 8.56851e-05
51 *60:70 *557:B1 0
52 *60:70 *558:A3 3.79812e-05
53 *60:70 *561:A 7.69776e-06
54 *60:70 *561:B 5.53366e-05
55 *60:70 *567:B1 0.000180777
56 *60:70 *115:32 1.51367e-05
57 *60:70 *126:22 0.000123126
58 *60:88 *560:B 0.000123404
59 *60:88 *568:B1 0
60 *60:88 *568:C1 0
61 *60:88 *607:A 3.02176e-05
62 *60:88 *107:72 0.000125724
63 *60:88 *107:74 5.59013e-05
64 *60:88 *120:16 3.24186e-05
65 *60:88 *135:20 0.000120187
66 *60:88 *135:33 2.58997e-05
67 *551:A2 *553:B1 2.39852e-05
68 *567:A1 *60:88 0.000103775
69 *43:22 *60:88 0
70 *56:14 *564:B 2.89114e-05
*RES
1 *552:Y *60:4 9.3 
2 *60:4 *60:6 10.3929 
3 *60:6 *555:C_N 22.7286 
4 *60:6 *564:B 24.425 
5 *60:4 *60:36 16.9464 
6 *60:36 *556:B 18.7643 
7 *60:36 *60:51 2.55357 
8 *60:51 *561:C 13.8 
9 *60:51 *60:70 10.2143 
10 *60:70 *559:A2 9.3 
11 *60:70 *557:A2 9.83571 
12 *60:4 *60:88 16.7143 
13 *60:88 *567:A2 9.3 
14 *60:88 *553:B1 23.7911 
*END

*D_NET *61 0.000187316
*CONN
*I *554:A2 I *D sky130_fd_sc_hd__o21a_1
*I *553:X O *D sky130_fd_sc_hd__a32o_1
*CAP
1 *554:A2 7.07319e-05
2 *553:X 7.07319e-05
3 *554:A1 *554:A2 3.18676e-05
4 *56:25 *554:A2 1.39841e-05
*RES
1 *553:X *554:A2 19.5464 
*END

*D_NET *62 0.0053311
*CONN
*I *558:A1 I *D sky130_fd_sc_hd__a31oi_1
*I *555:X O *D sky130_fd_sc_hd__or3b_1
*CAP
1 *558:A1 0
2 *555:X 0.000603429
3 *62:12 0.000603429
4 *62:12 *555:B 0
5 *62:12 *558:B1 0.000183726
6 *62:12 *563:A1 0
7 *62:12 *599:A 0.000530276
8 *62:12 *600:A 0.000133035
9 *62:12 *89:76 0
10 *62:12 *133:74 0.000914844
11 *564:B *62:12 3.34366e-05
12 *60:6 *62:12 0.00104039
13 *60:36 *62:12 0.00128853
*RES
1 *555:X *62:12 42.6571 
2 *62:12 *558:A1 9.3 
*END

*D_NET *63 0.000638527
*CONN
*I *558:A2 I *D sky130_fd_sc_hd__a31oi_1
*I *556:Y O *D sky130_fd_sc_hd__nand2_1
*CAP
1 *558:A2 0.000165564
2 *556:Y 0.000165564
3 *558:A2 *558:A3 1.02504e-05
4 *558:A2 *99:27 7.57869e-05
5 *558:A2 *114:51 0.00014183
6 *556:B *558:A2 5.10822e-05
7 *60:51 *558:A2 2.84494e-05
*RES
1 *556:Y *558:A2 30.9036 
*END

*D_NET *64 0.00158559
*CONN
*I *558:A3 I *D sky130_fd_sc_hd__a31oi_1
*I *557:X O *D sky130_fd_sc_hd__a21o_1
*CAP
1 *558:A3 0.000356262
2 *557:X 0.000356262
3 *558:A3 *567:B1 0.000358971
4 *558:A3 *99:27 0.0003103
5 *558:A3 *115:32 4.38265e-05
6 *558:A3 *126:22 7.83659e-05
7 *558:A2 *558:A3 1.02504e-05
8 *60:51 *558:A3 3.33721e-05
9 *60:70 *558:A3 3.79812e-05
*RES
1 *557:X *558:A3 35.0821 
*END

*D_NET *65 0.000580977
*CONN
*I *562:A1 I *D sky130_fd_sc_hd__a31oi_1
*I *559:X O *D sky130_fd_sc_hd__a21o_1
*CAP
1 *562:A1 7.91177e-05
2 *559:X 7.91177e-05
3 *562:A1 *557:A1 0.000106943
4 *562:A1 *562:B1 5.33005e-05
5 *562:A1 *567:B1 0.000262498
*RES
1 *559:X *562:A1 21.1893 
*END

*D_NET *66 0.00173448
*CONN
*I *562:A2 I *D sky130_fd_sc_hd__a31oi_1
*I *560:X O *D sky130_fd_sc_hd__or4_1
*CAP
1 *562:A2 0.000424045
2 *560:X 0.000424045
3 *562:A2 *531:A 0.000113271
4 *562:A2 *538:B 0.000129515
5 *562:A2 *541:A1 4.35452e-05
6 *562:A2 *541:B1 8.3992e-05
7 *562:A2 *562:A3 0.000202556
8 *562:A2 *124:24 0.000168733
9 *562:A2 *135:33 0.000144773
*RES
1 *560:X *562:A2 37.3679 
*END

*D_NET *67 0.000909721
*CONN
*I *562:A3 I *D sky130_fd_sc_hd__a31oi_1
*I *561:Y O *D sky130_fd_sc_hd__nand3_1
*CAP
1 *562:A3 0.000229202
2 *561:Y 0.000229202
3 *562:A3 *541:A1 9.22103e-06
4 *562:A3 *541:B1 4.90268e-05
5 *562:A3 *567:B1 5.54856e-05
6 *562:A3 *124:24 0.000135028
7 *562:A2 *562:A3 0.000202556
*RES
1 *561:Y *562:A3 31.725 
*END

*D_NET *68 0.000502149
*CONN
*I *566:A1 I *D sky130_fd_sc_hd__o31a_1
*I *563:X O *D sky130_fd_sc_hd__o41a_1
*CAP
1 *566:A1 0.000178588
2 *563:X 0.000178588
3 *566:A1 *563:A3 0.00010096
4 *566:A1 *563:B1 0
5 *566:A1 *565:C1 4.40119e-05
*RES
1 *563:X *566:A1 30.4929 
*END

*D_NET *69 0.00220294
*CONN
*I *568:A2 I *D sky130_fd_sc_hd__a211o_1
*I *566:A2 I *D sky130_fd_sc_hd__o31a_1
*I *564:X O *D sky130_fd_sc_hd__and2_1
*CAP
1 *568:A2 0.000116604
2 *566:A2 0.000107607
3 *564:X 0
4 *69:4 0.000224212
5 *566:A2 *554:B1 0.000149394
6 *566:A2 *565:C1 0
7 *566:A2 *566:A3 3.18676e-05
8 *566:A2 *566:B1 0.00018372
9 *566:A2 *107:60 0.000320924
10 *568:A2 *554:B1 0.00056328
11 *564:B *568:A2 5.52302e-05
12 *56:14 *566:A2 2.95641e-05
13 *56:14 *568:A2 3.98462e-05
14 *56:25 *568:A2 0.000380687
*RES
1 *564:X *69:4 9.3 
2 *69:4 *566:A2 13.55 
3 *69:4 *568:A2 15.7286 
*END

*D_NET *70 0.00054156
*CONN
*I *566:A3 I *D sky130_fd_sc_hd__o31a_1
*I *565:X O *D sky130_fd_sc_hd__o211a_1
*CAP
1 *566:A3 5.62922e-05
2 *565:X 5.62922e-05
3 *566:A3 *565:C1 5.52238e-05
4 *566:A3 *107:60 7.15579e-05
5 *566:A2 *566:A3 3.18676e-05
6 *56:14 *566:A3 0.000270326
*RES
1 *565:X *566:A3 21.1893 
*END

*D_NET *71 0.0011411
*CONN
*I *568:B1 I *D sky130_fd_sc_hd__a211o_1
*I *567:Y O *D sky130_fd_sc_hd__a21oi_1
*CAP
1 *568:B1 0.000351225
2 *567:Y 0.000351225
3 *568:B1 *568:C1 9.54798e-06
4 *568:B1 *78:40 4.6025e-06
5 *568:B1 *78:59 9.59532e-06
6 *568:B1 *119:23 0.000197634
7 *553:B1 *568:B1 0.000108091
8 *593:D *568:B1 0
9 *43:22 *568:B1 0.000109183
10 *60:88 *568:B1 0
*RES
1 *567:Y *568:B1 35.1312 
*END

*D_NET *72 0.000338358
*CONN
*I *570:C I *D sky130_fd_sc_hd__and3_1
*I *569:X O *D sky130_fd_sc_hd__or2_1
*CAP
1 *570:C 9.29826e-05
2 *569:X 9.29826e-05
3 *570:C *89:6 9.52453e-05
4 *570:C *89:16 5.71472e-05
*RES
1 *569:X *570:C 20.0286 
*END

*D_NET *73 0.000315609
*CONN
*I *572:C I *D sky130_fd_sc_hd__and3_1
*I *571:X O *D sky130_fd_sc_hd__a21o_1
*CAP
1 *572:C 9.4797e-05
2 *571:X 9.4797e-05
3 *572:C *572:A 5.71472e-05
4 *572:C *89:16 5.14325e-05
5 *572:C *136:40 1.74352e-05
*RES
1 *571:X *572:C 20.0286 
*END

*D_NET *74 0.00157937
*CONN
*I *574:C I *D sky130_fd_sc_hd__and3_1
*I *573:Y O *D sky130_fd_sc_hd__nand2_1
*CAP
1 *574:C 0.000361583
2 *573:Y 0.000361583
3 *574:C *534:A 0.000227322
4 *574:C *534:C 1.02936e-05
5 *574:C *534:D 0.000136951
6 *574:C *95:6 2.96084e-05
7 *574:C *95:10 2.4862e-06
8 *574:C *133:23 0
9 *574:C *136:58 0.000449546
*RES
1 *573:Y *574:C 27.1536 
*END

*D_NET *75 0.000253627
*CONN
*I *576:A2 I *D sky130_fd_sc_hd__a21oi_1
*I *575:Y O *D sky130_fd_sc_hd__nand2_1
*CAP
1 *576:A2 3.17869e-05
2 *575:Y 3.17869e-05
3 *576:A2 *576:A1 9.80173e-05
4 *576:A2 *596:CLK 9.20361e-05
*RES
1 *575:Y *576:A2 19.975 
*END

*D_NET *76 0.00470943
*CONN
*I *543:B I *D sky130_fd_sc_hd__or4_1
*I *565:A1 I *D sky130_fd_sc_hd__o211a_1
*I *546:A2 I *D sky130_fd_sc_hd__o41a_1
*I *573:A I *D sky130_fd_sc_hd__nand2_1
*I *497:Y O *D sky130_fd_sc_hd__inv_2
*CAP
1 *543:B 0.000214705
2 *565:A1 0.000312582
3 *546:A2 3.92359e-05
4 *573:A 0.000139443
5 *497:Y 0
6 *76:19 0.000626183
7 *76:8 0.000867716
8 *76:4 0.000668614
9 *543:B *91:8 0.000227532
10 *546:A2 *134:93 5.52238e-05
11 *565:A1 *507:A 0
12 *565:A1 *539:B1 3.50875e-05
13 *565:A1 *540:A2 2.56694e-05
14 *565:A1 *565:C1 0
15 *565:A1 *94:42 2.77721e-05
16 *565:A1 *114:37 0
17 *565:A1 *114:51 0
18 *565:A1 *115:32 1.90936e-05
19 *565:A1 *134:93 0.000213706
20 *573:A *534:A 3.34295e-05
21 *573:A *573:B 2.19226e-05
22 *573:A *129:80 0
23 *573:A *134:39 0
24 *573:A *136:69 0
25 *76:8 *89:33 0.000663744
26 *76:8 *108:21 0.000421028
27 *76:19 *555:A 0
28 *76:19 *129:80 0
29 *76:19 *134:39 0
30 *565:B1 *565:A1 9.67416e-05
*RES
1 *497:Y *76:4 9.3 
2 *76:4 *76:8 16.5357 
3 *76:8 *573:A 16.05 
4 *76:8 *76:19 4.67857 
5 *76:19 *546:A2 14.3357 
6 *76:19 *565:A1 20.2286 
7 *76:4 *543:B 13.1393 
*END

*D_NET *77 0.000224162
*CONN
*I *539:A1 I *D sky130_fd_sc_hd__o2111a_1
*I *498:Y O *D sky130_fd_sc_hd__inv_2
*CAP
1 *539:A1 1.1121e-05
2 *498:Y 1.1121e-05
3 *539:A1 *498:A 0.00010096
4 *539:A1 *129:80 0.00010096
*RES
1 *498:Y *539:A1 19.5464 
*END

*D_NET *78 0.0103194
*CONN
*I *553:A1 I *D sky130_fd_sc_hd__a32o_1
*I *561:A I *D sky130_fd_sc_hd__nand3_1
*I *544:A I *D sky130_fd_sc_hd__nand3_1
*I *568:A1 I *D sky130_fd_sc_hd__a211o_1
*I *565:C1 I *D sky130_fd_sc_hd__o211a_1
*I *539:A2 I *D sky130_fd_sc_hd__o2111a_1
*I *507:Y O *D sky130_fd_sc_hd__inv_2
*CAP
1 *553:A1 0
2 *561:A 0.000236413
3 *544:A 0.000152763
4 *568:A1 0
5 *565:C1 0.00024458
6 *539:A2 0
7 *507:Y 0
8 *78:67 0.000645877
9 *78:59 0.000795165
10 *78:40 0.0014874
11 *78:10 0.00042437
12 *78:4 0.00112873
13 *544:A *541:B1 2.07728e-05
14 *544:A *544:B 0.000359041
15 *544:A *545:A1 0.000336937
16 *544:A *562:B1 0
17 *544:A *94:70 6.74324e-05
18 *561:A *527:C1 0.000183525
19 *561:A *561:B 1.90936e-05
20 *561:A *115:32 0.000533173
21 *561:A *124:24 7.47649e-05
22 *565:C1 *539:B1 1.17968e-05
23 *565:C1 *563:A3 4.44929e-05
24 *565:C1 *563:B1 0
25 *565:C1 *565:A2 8.59554e-05
26 *565:C1 *94:42 2.92136e-05
27 *565:C1 *107:60 0.000313109
28 *78:10 *539:B1 2.08808e-05
29 *78:10 *546:A4 0.000144773
30 *78:10 *563:A3 8.6229e-06
31 *78:10 *563:A4 0
32 *78:10 *129:80 0
33 *78:10 *134:93 2.37761e-05
34 *78:40 *497:A 0
35 *78:40 *546:A4 0.000258011
36 *78:40 *568:C1 0.000142943
37 *78:40 *91:27 0.000829135
38 *78:40 *103:49 0
39 *78:59 *527:C1 0.000163037
40 *78:59 *551:A1 2.06112e-05
41 *78:59 *94:42 0.000335482
42 *78:59 *94:46 9.54798e-06
43 *78:67 *541:B1 6.65745e-05
44 *78:67 *553:B2 0.00014285
45 *78:67 *557:A1 0.000256992
46 *78:67 *94:70 9.0866e-05
47 *551:A2 *78:67 4.71204e-05
48 *553:B1 *78:59 2.06112e-05
49 *553:B1 *78:67 1.43404e-05
50 *554:A1 *78:67 0.00033439
51 *565:A1 *565:C1 0
52 *566:A1 *565:C1 4.40119e-05
53 *566:A2 *565:C1 0
54 *566:A3 *565:C1 5.52238e-05
55 *568:B1 *78:40 4.6025e-06
56 *568:B1 *78:59 9.59532e-06
57 *56:14 *565:C1 7.31299e-05
58 *56:25 *78:67 0
59 *60:70 *561:A 7.69776e-06
*RES
1 *507:Y *78:4 9.3 
2 *78:4 *78:10 7.5 
3 *78:10 *539:A2 13.8 
4 *78:10 *565:C1 21.05 
5 *78:4 *78:40 19.2679 
6 *78:40 *568:A1 13.8 
7 *78:40 *78:59 13.1457 
8 *78:59 *78:67 12.0804 
9 *78:67 *544:A 19.2375 
10 *78:67 *561:A 23.1829 
11 *78:59 *553:A1 9.3 
*END

*D_NET *79 0.00384572
*CONN
*I *644:A I *D sky130_fd_sc_hd__buf_1
*I *510:Y O *D sky130_fd_sc_hd__nor4b_1
*CAP
1 *644:A 0
2 *510:Y 0.00128215
3 *79:20 0.00128215
4 *79:20 *515:A1 0
5 *79:20 *80:40 0.000209394
6 *79:20 *80:49 0.000117621
7 *79:20 *90:10 5.33005e-05
8 *79:20 *90:12 0.000186662
9 *79:20 *90:22 5.52302e-05
10 *79:20 *90:59 3.17148e-05
11 *79:20 *104:10 0
12 *79:20 *113:8 5.52238e-05
13 *79:20 *113:29 0.000168082
14 *79:20 *135:16 1.33343e-05
15 *79:20 *137:31 2.07382e-05
16 *545:A2 *79:20 0.000180855
17 *545:A3 *79:20 5.52302e-05
18 *587:D *79:20 0.000134043
*RES
1 *510:Y *79:20 48.0857 
2 *79:20 *644:A 9.3 
*END

*D_NET *80 0.0145597
*CONN
*I *525:A2 I *D sky130_fd_sc_hd__o211a_1
*I *523:A2 I *D sky130_fd_sc_hd__o211a_1
*I *521:A2 I *D sky130_fd_sc_hd__o211a_1
*I *517:A2 I *D sky130_fd_sc_hd__o211a_1
*I *519:A2 I *D sky130_fd_sc_hd__o211a_1
*I *513:A2 I *D sky130_fd_sc_hd__o211a_1
*I *527:A2 I *D sky130_fd_sc_hd__o211a_1
*I *515:A2 I *D sky130_fd_sc_hd__o211a_1
*I *529:B I *D sky130_fd_sc_hd__nand2_2
*I *528:B I *D sky130_fd_sc_hd__and2_2
*I *511:X O *D sky130_fd_sc_hd__or4b_4
*CAP
1 *525:A2 0.000369491
2 *523:A2 0
3 *521:A2 0
4 *517:A2 8.49665e-05
5 *519:A2 0
6 *513:A2 1.99857e-05
7 *527:A2 0.000706681
8 *515:A2 1.32961e-05
9 *529:B 0.000167684
10 *528:B 0.00029814
11 *511:X 0
12 *80:130 0.000557934
13 *80:115 0.000329808
14 *80:98 0.000527518
15 *80:81 0.000499364
16 *80:66 0.000263031
17 *80:49 0.00123223
18 *80:40 0.000648262
19 *80:15 0.000739423
20 *80:4 0.000715593
21 *513:A2 *513:B1 1.04232e-05
22 *515:A2 *515:B1 9.97187e-06
23 *517:A2 *517:A1 0.000197984
24 *517:A2 *517:C1 5.29461e-05
25 *517:A2 *137:104 5.41794e-05
26 *525:A2 *524:B 0
27 *525:A2 *525:C1 0
28 *525:A2 *583:CLK 2.89114e-05
29 *525:A2 *584:CLK 9.40245e-05
30 *525:A2 *128:31 0.000135028
31 *527:A2 *503:A 7.58516e-05
32 *527:A2 *509:B 0.000623889
33 *527:A2 *513:A1 5.38293e-05
34 *527:A2 *513:C1 0.000170955
35 *527:A2 *527:B1 0.000132817
36 *527:A2 *527:C1 0
37 *527:A2 *116:10 0
38 *527:A2 *116:31 0
39 *528:B *511:D_N 1.74352e-05
40 *528:B *528:A 0.000144773
41 *528:B *136:25 2.36784e-05
42 *528:B *137:31 0.000388424
43 *529:B *515:A1 7.90803e-05
44 *529:B *90:10 5.52302e-05
45 *529:B *113:29 0.000168082
46 *529:B *137:31 5.52302e-05
47 *80:15 *515:A1 5.52302e-05
48 *80:15 *137:31 5.71472e-05
49 *80:40 *515:A1 0.000415665
50 *80:40 *515:B1 1.55885e-05
51 *80:40 *587:CLK 8.15768e-05
52 *80:49 *515:B1 4.58194e-05
53 *80:66 *513:B1 3.18676e-05
54 *80:81 *513:A1 5.15383e-05
55 *80:81 *513:B1 9.77274e-05
56 *80:81 *519:A1 7.83659e-05
57 *80:98 *518:A 0.000169451
58 *80:98 *518:B 5.52238e-05
59 *80:98 *519:B1 0.000196556
60 *80:98 *640:A 4.08637e-05
61 *80:98 *130:8 0.00048746
62 *80:98 *137:87 0.000154182
63 *80:98 *149:12 0.000272371
64 *80:115 *517:A1 0.000368104
65 *80:115 *640:A 9.41642e-05
66 *80:115 *104:79 0.000200413
67 *80:115 *104:88 0.000216771
68 *80:115 *130:8 8.36572e-05
69 *80:115 *137:104 1.91512e-05
70 *80:115 *137:113 4.1331e-06
71 *80:130 *104:88 0.000340073
72 *80:130 *126:22 0.00012401
73 *80:130 *128:31 0
74 *80:130 *137:113 7.25984e-05
75 *579:D *80:49 1.92905e-05
76 *581:D *80:81 0
77 *584:D *525:A2 0
78 *587:D *80:15 0.000315152
79 *587:D *80:40 0.000322393
80 *610:A *527:A2 0
81 *79:20 *80:40 0.000209394
82 *79:20 *80:49 0.000117621
*RES
1 *511:X *80:4 9.3 
2 *80:4 *528:B 15.6036 
3 *80:4 *80:15 7.51786 
4 *80:15 *529:B 21.9964 
5 *80:15 *80:40 7.71429 
6 *80:40 *515:A2 9.72857 
7 *80:40 *80:49 8.75 
8 *80:49 *527:A2 33.7643 
9 *80:49 *80:66 0.946429 
10 *80:66 *513:A2 9.72857 
11 *80:66 *80:81 13.3214 
12 *80:81 *519:A2 9.3 
13 *80:81 *80:98 11.1071 
14 *80:98 *517:A2 20.8536 
15 *80:98 *80:115 10.7321 
16 *80:115 *521:A2 13.8 
17 *80:115 *80:130 10.1429 
18 *80:130 *523:A2 9.3 
19 *80:130 *525:A2 25.425 
*END

*D_NET *81 0.00117742
*CONN
*I *513:B1 I *D sky130_fd_sc_hd__o211a_1
*I *512:X O *D sky130_fd_sc_hd__or2_1
*CAP
1 *513:B1 0.000455745
2 *512:X 0.000455745
3 *513:B1 *581:CLK 5.33882e-05
4 *513:B1 *638:A 1.72894e-05
5 *513:B1 *132:29 0
6 *513:A2 *513:B1 1.04232e-05
7 *578:D *513:B1 5.52302e-05
8 *80:66 *513:B1 3.18676e-05
9 *80:81 *513:B1 9.77274e-05
*RES
1 *512:X *513:B1 35.7429 
*END

*D_NET *82 0.00140143
*CONN
*I *515:B1 I *D sky130_fd_sc_hd__o211a_1
*I *514:X O *D sky130_fd_sc_hd__or2_1
*CAP
1 *515:B1 0.00050724
2 *514:X 0.00050724
3 *515:B1 *515:A1 0.000127802
4 *515:B1 *587:CLK 1.3701e-05
5 *515:B1 *104:31 4.66203e-05
6 *515:B1 *132:12 0
7 *515:A2 *515:B1 9.97187e-06
8 *579:D *515:B1 0.000127446
9 *80:40 *515:B1 1.55885e-05
10 *80:49 *515:B1 4.58194e-05
*RES
1 *514:X *515:B1 35.9929 
*END

*D_NET *83 0.000393794
*CONN
*I *517:B1 I *D sky130_fd_sc_hd__o211a_1
*I *516:X O *D sky130_fd_sc_hd__or2_1
*CAP
1 *517:B1 0.000187258
2 *516:X 0.000187258
3 *580:D *517:B1 1.92789e-05
*RES
1 *516:X *517:B1 21.6179 
*END

*D_NET *84 0.000634582
*CONN
*I *519:B1 I *D sky130_fd_sc_hd__o211a_1
*I *518:X O *D sky130_fd_sc_hd__or2_1
*CAP
1 *519:B1 7.45814e-05
2 *518:X 7.45814e-05
3 *519:B1 *137:87 0.000288864
4 *80:98 *519:B1 0.000196556
*RES
1 *518:X *519:B1 21.6179 
*END

*D_NET *85 0.000422728
*CONN
*I *521:B1 I *D sky130_fd_sc_hd__o211a_1
*I *520:X O *D sky130_fd_sc_hd__or2_1
*CAP
1 *521:B1 0.00017787
2 *520:X 0.00017787
3 *521:B1 *517:A1 1.24368e-05
4 *521:B1 *521:A1 5.45515e-05
*RES
1 *520:X *521:B1 21.6179 
*END

*D_NET *86 0.000964937
*CONN
*I *523:B1 I *D sky130_fd_sc_hd__o211a_1
*I *522:X O *D sky130_fd_sc_hd__or2_1
*CAP
1 *523:B1 0.000241505
2 *522:X 0.000241505
3 *523:B1 *525:C1 9.25014e-06
4 *523:B1 *111:42 0.000113073
5 *523:B1 *126:22 0.000208271
6 *523:B1 *137:113 0.000151333
*RES
1 *522:X *523:B1 32.1357 
*END

*D_NET *87 0.000755951
*CONN
*I *525:B1 I *D sky130_fd_sc_hd__o211a_1
*I *524:X O *D sky130_fd_sc_hd__or2_1
*CAP
1 *525:B1 0.000227705
2 *524:X 0.000227705
3 *525:B1 *500:A 0.000142053
4 *525:B1 *524:A 0.00010096
5 *525:B1 *525:A1 5.7661e-06
6 *525:B1 *118:34 5.17614e-05
*RES
1 *524:X *525:B1 23.2607 
*END

*D_NET *88 0.00140973
*CONN
*I *527:B1 I *D sky130_fd_sc_hd__o211a_1
*I *526:X O *D sky130_fd_sc_hd__or2_1
*CAP
1 *527:B1 0.000390194
2 *526:X 0.000390194
3 *527:B1 *503:A 0.000139913
4 *527:B1 *527:C1 7.40992e-05
5 *527:B1 *557:B1 0.000282514
6 *527:A2 *527:B1 0.000132817
*RES
1 *526:X *527:B1 35.8321 
*END

*D_NET *89 0.0124224
*CONN
*I *570:A I *D sky130_fd_sc_hd__and3_1
*I *554:B1 I *D sky130_fd_sc_hd__o21a_1
*I *566:B1 I *D sky130_fd_sc_hd__o31a_1
*I *550:B1 I *D sky130_fd_sc_hd__o31a_1
*I *540:B1 I *D sky130_fd_sc_hd__o21a_1
*I *574:A I *D sky130_fd_sc_hd__and3_1
*I *572:A I *D sky130_fd_sc_hd__and3_1
*I *528:X O *D sky130_fd_sc_hd__and2_2
*CAP
1 *570:A 0
2 *554:B1 0.000714881
3 *566:B1 4.14704e-05
4 *550:B1 4.10153e-05
5 *540:B1 0.000522693
6 *574:A 0.000118047
7 *572:A 1.13923e-05
8 *528:X 9.13998e-05
9 *89:76 0.00117904
10 *89:48 0.000860897
11 *89:33 0.00134245
12 *89:27 0.00149701
13 *89:16 0.000542725
14 *89:6 0.000475621
15 *540:B1 *540:A2 0.000199737
16 *540:B1 *109:8 2.65105e-05
17 *540:B1 *112:31 9.90367e-05
18 *550:B1 *107:27 2.88424e-05
19 *550:B1 *109:24 0
20 *554:B1 *107:60 5.41794e-05
21 *572:A *136:40 2.89016e-05
22 *574:A *534:C 0
23 *574:A *107:21 0
24 *574:A *133:23 5.03402e-05
25 *89:6 *136:25 0.000273269
26 *89:16 *136:25 0.000171313
27 *89:16 *136:40 0.00027214
28 *89:27 *555:B 7.40571e-05
29 *89:27 *571:B1 0
30 *89:27 *129:80 0
31 *89:33 *108:21 0.000151577
32 *89:33 *133:47 5.41609e-05
33 *89:48 *542:A_N 5.90443e-06
34 *89:48 *107:21 0
35 *89:48 *107:27 6.18233e-05
36 *89:48 *133:23 2.78729e-05
37 *89:48 *133:47 7.26935e-05
38 *89:76 *555:B 0.000317609
39 *89:76 *563:A4 0.000147708
40 *89:76 *563:B1 0.000105394
41 *89:76 *107:60 0.0002184
42 *89:76 *129:80 0
43 *550:A1 *540:B1 1.32552e-05
44 *550:A2 *540:B1 1.74352e-05
45 *550:A2 *550:B1 9.25014e-06
46 *550:A3 *540:B1 5.52238e-05
47 *555:C_N *89:76 0.00017309
48 *564:B *554:B1 4.46186e-06
49 *564:B *89:76 0
50 *566:A2 *554:B1 0.000149394
51 *566:A2 *566:B1 0.00018372
52 *567:A1 *554:B1 7.48927e-06
53 *568:A2 *554:B1 0.00056328
54 *570:C *89:6 9.52453e-05
55 *570:C *89:16 5.71472e-05
56 *572:C *572:A 5.71472e-05
57 *572:C *89:16 5.14325e-05
58 *595:D *89:16 5.52238e-05
59 *56:14 *554:B1 4.27437e-05
60 *56:14 *566:B1 9.7659e-05
61 *56:25 *554:B1 0.000245316
62 *62:12 *89:76 0
63 *76:8 *89:33 0.000663744
*RES
1 *528:X *89:6 11.8893 
2 *89:6 *89:16 8.21429 
3 *89:16 *572:A 9.83571 
4 *89:16 *89:27 6.75 
5 *89:27 *89:33 21.8571 
6 *89:33 *574:A 16.05 
7 *89:33 *89:48 6.05357 
8 *89:48 *540:B1 22.1929 
9 *89:48 *550:B1 14.8357 
10 *89:27 *89:76 15.25 
11 *89:76 *566:B1 11.0679 
12 *89:76 *554:B1 31.3536 
13 *89:6 *570:A 9.3 
*END

*D_NET *90 0.0137086
*CONN
*I *562:B1 I *D sky130_fd_sc_hd__a31oi_1
*I *558:B1 I *D sky130_fd_sc_hd__a31oi_1
*I *545:B1 I *D sky130_fd_sc_hd__a31oi_1
*I *568:C1 I *D sky130_fd_sc_hd__a211o_1
*I *576:B1 I *D sky130_fd_sc_hd__a21oi_1
*I *529:Y O *D sky130_fd_sc_hd__nand2_2
*CAP
1 *562:B1 0.000228067
2 *558:B1 3.4238e-05
3 *545:B1 0
4 *568:C1 0.000810968
5 *576:B1 0.00226804
6 *529:Y 0.000184337
7 *90:59 0.00050354
8 *90:22 0.00440978
9 *90:12 0.00135348
10 *90:10 0.000448275
11 *558:B1 *600:A 0.000183726
12 *562:B1 *541:A2 0.000210487
13 *562:B1 *545:A1 0
14 *562:B1 *557:A1 5.33005e-05
15 *562:B1 *113:29 8.0087e-05
16 *562:B1 *124:24 0.000166555
17 *568:C1 *497:A 0
18 *568:C1 *511:A 0
19 *568:C1 *543:C 6.20855e-06
20 *568:C1 *560:B 0
21 *568:C1 *560:D 5.77069e-05
22 *568:C1 *570:B 6.39183e-05
23 *568:C1 *91:23 0.000207128
24 *568:C1 *103:16 0
25 *568:C1 *129:14 0
26 *568:C1 *129:18 0
27 *568:C1 *137:10 0
28 *576:B1 *594:CLK 0.00017089
29 *576:B1 *595:CLK 0.000131813
30 *576:B1 *596:CLK 0.00029847
31 *576:B1 *107:10 1.71774e-05
32 *90:10 *529:A 0
33 *90:10 *137:31 0.000145449
34 *90:10 *137:40 5.62995e-05
35 *90:12 *137:31 0.000175251
36 *90:22 *515:A1 0
37 *90:22 *545:A1 3.39451e-05
38 *90:22 *594:CLK 3.69047e-06
39 *90:22 *605:A 0.000101277
40 *90:22 *112:41 0
41 *90:22 *137:31 5.52302e-05
42 *90:59 *545:A1 0
43 *90:59 *113:29 0.000178912
44 *529:B *90:10 5.52302e-05
45 *544:A *562:B1 0
46 *562:A1 *562:B1 5.33005e-05
47 *568:B1 *568:C1 9.54798e-06
48 *587:D *90:22 0.00015304
49 *594:D *568:C1 0.000102545
50 *594:D *90:22 2.60782e-05
51 *595:D *576:B1 7.01199e-06
52 *596:D *576:B1 1.00208e-05
53 *60:88 *568:C1 0
54 *62:12 *558:B1 0.000183726
55 *78:40 *568:C1 0.000142943
56 *79:20 *90:10 5.33005e-05
57 *79:20 *90:12 0.000186662
58 *79:20 *90:22 5.52302e-05
59 *79:20 *90:59 3.17148e-05
*RES
1 *529:Y *90:10 13.2643 
2 *90:10 *90:12 1.76786 
3 *90:12 *90:22 27.4643 
4 *90:22 *576:B1 39.4607 
5 *90:22 *568:C1 34.5679 
6 *90:12 *545:B1 9.3 
7 *90:10 *90:59 9.48214 
8 *90:59 *558:B1 15.5679 
9 *90:59 *562:B1 19.3179 
*END

*D_NET *91 0.00696368
*CONN
*I *543:D I *D sky130_fd_sc_hd__or4_1
*I *560:D I *D sky130_fd_sc_hd__or4_1
*I *563:A4 I *D sky130_fd_sc_hd__o41a_1
*I *546:A4 I *D sky130_fd_sc_hd__o41a_1
*I *570:B I *D sky130_fd_sc_hd__and3_1
*I *530:Y O *D sky130_fd_sc_hd__nand2_1
*CAP
1 *543:D 0
2 *560:D 0.000193081
3 *563:A4 9.01278e-05
4 *546:A4 0.000240409
5 *570:B 0.00022191
6 *530:Y 7.09584e-05
7 *91:27 0.000551209
8 *91:23 0.000671145
9 *91:10 0.000479302
10 *91:8 7.09584e-05
11 *546:A4 *540:A2 5.71472e-05
12 *546:A4 *546:A1 9.60939e-05
13 *546:A4 *133:66 9.61455e-05
14 *546:A4 *133:74 0.000349841
15 *560:D *560:A 0.000137983
16 *560:D *107:70 0.000269428
17 *563:A4 *563:B1 9.54798e-06
18 *563:A4 *129:80 0
19 *570:B *511:D_N 0
20 *570:B *543:C 0.000260654
21 *91:8 *530:B 0.000173719
22 *91:23 *511:D_N 0
23 *91:23 *133:78 0
24 *91:27 *133:74 0.000988109
25 *543:B *91:8 0.000227532
26 *568:C1 *560:D 5.77069e-05
27 *568:C1 *570:B 6.39183e-05
28 *568:C1 *91:23 0.000207128
29 *78:10 *546:A4 0.000144773
30 *78:10 *563:A4 0
31 *78:40 *546:A4 0.000258011
32 *78:40 *91:27 0.000829135
33 *89:76 *563:A4 0.000147708
*RES
1 *530:Y *91:8 11.9071 
2 *91:8 *91:10 4.5 
3 *91:10 *570:B 17.1036 
4 *91:10 *91:23 5.28571 
5 *91:23 *91:27 14.0714 
6 *91:27 *546:A4 16.8357 
7 *91:27 *563:A4 20.2464 
8 *91:23 *560:D 18.4429 
9 *91:8 *543:D 9.3 
*END

*D_NET *92 0.00318196
*CONN
*I *557:A1 I *D sky130_fd_sc_hd__a21o_1
*I *553:B2 I *D sky130_fd_sc_hd__a32o_1
*I *531:X O *D sky130_fd_sc_hd__and3_1
*CAP
1 *557:A1 0.000368953
2 *553:B2 3.37681e-05
3 *531:X 0.000218264
4 *92:12 0.000620985
5 *553:B2 *551:A1 1.74352e-05
6 *557:A1 *499:A 0.00010096
7 *557:A1 *541:A2 9.41642e-05
8 *557:A1 *567:B1 6.40948e-05
9 *557:A1 *99:29 0.000259934
10 *557:A1 *124:24 0.000323897
11 *92:12 *506:A 9.48289e-05
12 *92:12 *531:A 0.000126734
13 *92:12 *538:B 0.000123153
14 *92:12 *607:A 0
15 *551:A2 *553:B2 3.18676e-05
16 *557:A2 *557:A1 5.71472e-05
17 *562:A1 *557:A1 0.000106943
18 *562:B1 *557:A1 5.33005e-05
19 *60:70 *557:A1 8.56851e-05
20 *78:67 *553:B2 0.00014285
21 *78:67 *557:A1 0.000256992
*RES
1 *531:X *92:12 22.4071 
2 *92:12 *553:B2 10.6571 
3 *92:12 *557:A1 20.55 
*END

*D_NET *93 0.00246337
*CONN
*I *572:B I *D sky130_fd_sc_hd__and3_1
*I *555:B I *D sky130_fd_sc_hd__or3b_1
*I *573:B I *D sky130_fd_sc_hd__nand2_1
*I *532:Y O *D sky130_fd_sc_hd__nand3_1
*CAP
1 *572:B 0
2 *555:B 0.000217848
3 *573:B 0.000195003
4 *532:Y 0
5 *93:19 0.000513702
6 *93:4 0.000490857
7 *555:B *563:A1 0
8 *555:B *103:16 0
9 *573:B *532:A 4.6025e-06
10 *573:B *534:A 3.22304e-05
11 *573:B *129:80 0
12 *573:B *134:10 5.71472e-05
13 *573:B *134:16 9.66581e-05
14 *93:19 *134:6 0.000227539
15 *93:19 *134:10 0.000214198
16 *573:A *573:B 2.19226e-05
17 *62:12 *555:B 0
18 *89:27 *555:B 7.40571e-05
19 *89:76 *555:B 0.000317609
*RES
1 *532:Y *93:4 9.3 
2 *93:4 *573:B 21.1036 
3 *93:4 *93:19 4.23214 
4 *93:19 *555:B 23.2821 
5 *93:19 *572:B 9.3 
*END

*D_NET *94 0.0108007
*CONN
*I *541:A1 I *D sky130_fd_sc_hd__a21o_1
*I *544:B I *D sky130_fd_sc_hd__nand3_1
*I *551:A1 I *D sky130_fd_sc_hd__a21oi_1
*I *553:A2 I *D sky130_fd_sc_hd__a32o_1
*I *539:B1 I *D sky130_fd_sc_hd__o2111a_1
*I *548:A I *D sky130_fd_sc_hd__and2_1
*I *533:X O *D sky130_fd_sc_hd__and2b_1
*CAP
1 *541:A1 0.000156007
2 *544:B 0.000148105
3 *551:A1 0.000216592
4 *553:A2 0
5 *539:B1 7.42304e-05
6 *548:A 0.000291117
7 *533:X 0.000204321
8 *94:70 0.000614552
9 *94:46 0.00030439
10 *94:42 0.00159786
11 *94:27 0.00158491
12 *94:10 0.000806497
13 *539:B1 *563:A3 5.48376e-05
14 *539:B1 *134:93 5.32956e-05
15 *541:A1 *541:B1 0.000144773
16 *541:A1 *545:A1 9.90431e-05
17 *541:A1 *124:24 1.92789e-05
18 *544:B *506:A 0.000123957
19 *548:A *498:A 9.71197e-05
20 *548:A *542:A_N 9.71197e-05
21 *548:A *565:A2 3.93986e-05
22 *548:A *107:60 0.00012501
23 *551:A1 *120:16 2.35994e-05
24 *94:10 *547:B 1.52978e-05
25 *94:10 *547:C_N 2.56601e-05
26 *94:10 *114:37 3.52562e-05
27 *94:10 *114:51 1.00375e-05
28 *94:10 *133:66 0.000127446
29 *94:10 *136:69 6.19181e-05
30 *94:10 *136:80 7.2754e-05
31 *94:10 *136:91 5.10822e-05
32 *94:27 *498:A 0.000402985
33 *94:42 *527:C1 0.000117072
34 *94:42 *115:32 0.000776579
35 *94:46 *607:A 2.57737e-05
36 *94:46 *120:16 1.66706e-05
37 *94:70 *506:A 4.87406e-05
38 *94:70 *527:C1 0.000566601
39 *94:70 *115:32 0.000197386
40 *544:A *544:B 0.000359041
41 *544:A *94:70 6.74324e-05
42 *549:C *548:A 5.65661e-05
43 *551:A2 *551:A1 0.000224583
44 *553:B1 *551:A1 1.437e-05
45 *553:B2 *551:A1 1.74352e-05
46 *562:A2 *541:A1 4.35452e-05
47 *562:A3 *541:A1 9.22103e-06
48 *565:A1 *539:B1 3.50875e-05
49 *565:A1 *94:42 2.77721e-05
50 *565:C1 *539:B1 1.17968e-05
51 *565:C1 *94:42 2.92136e-05
52 *78:10 *539:B1 2.08808e-05
53 *78:59 *551:A1 2.06112e-05
54 *78:59 *94:42 0.000335482
55 *78:59 *94:46 9.54798e-06
56 *78:67 *94:70 9.0866e-05
*RES
1 *533:X *94:10 23.2821 
2 *94:10 *548:A 22.9429 
3 *94:10 *94:27 8.73214 
4 *94:27 *539:B1 15.4429 
5 *94:27 *94:42 7.656 
6 *94:42 *94:46 4.5975 
7 *94:46 *553:A2 13.8 
8 *94:46 *551:A1 17.1214 
9 *94:42 *94:70 6.42001 
10 *94:70 *544:B 18.4786 
11 *94:70 *541:A1 17.2107 
*END

*D_NET *95 0.00214393
*CONN
*I *574:B I *D sky130_fd_sc_hd__and3_1
*I *535:B I *D sky130_fd_sc_hd__or2_1
*I *575:B I *D sky130_fd_sc_hd__nand2_1
*I *536:A2 I *D sky130_fd_sc_hd__o21a_1
*I *534:Y O *D sky130_fd_sc_hd__nand4_1
*CAP
1 *574:B 0
2 *535:B 0
3 *575:B 9.35162e-05
4 *536:A2 0.000163962
5 *534:Y 0.000236967
6 *95:12 0.000333326
7 *95:10 0.000260339
8 *95:6 0.000421458
9 *536:A2 *575:A 9.71197e-05
10 *536:A2 *108:12 2.34136e-05
11 *536:A2 *112:41 3.15282e-05
12 *575:B *575:A 7.50601e-05
13 *575:B *576:A1 7.83659e-05
14 *95:6 *534:C 6.05161e-06
15 *95:6 *534:D 1.55885e-05
16 *95:10 *133:23 4.37618e-05
17 *95:12 *575:A 0.000130419
18 *95:12 *133:23 0.00010096
19 *574:C *95:6 2.96084e-05
20 *574:C *95:10 2.4862e-06
*RES
1 *534:Y *95:6 12.3 
2 *95:6 *95:10 2.80357 
3 *95:10 *95:12 2.17857 
4 *95:12 *536:A2 21.6036 
5 *95:12 *575:B 20.55 
6 *95:10 *535:B 9.3 
7 *95:6 *574:B 9.3 
*END

*D_NET *96 0.000649173
*CONN
*I *576:A1 I *D sky130_fd_sc_hd__a21oi_1
*I *535:X O *D sky130_fd_sc_hd__or2_1
*CAP
1 *576:A1 0.000206228
2 *535:X 0.000206228
3 *576:A1 *596:CLK 6.03337e-05
4 *575:B *576:A1 7.83659e-05
5 *576:A2 *576:A1 9.80173e-05
6 *596:D *576:A1 0
*RES
1 *535:X *576:A1 30.8143 
*END

*D_NET *97 0.000833539
*CONN
*I *540:A1 I *D sky130_fd_sc_hd__o21a_1
*I *536:X O *D sky130_fd_sc_hd__o21a_1
*CAP
1 *540:A1 0.000281298
2 *536:X 0.000281298
3 *540:A1 *103:63 0
4 *540:A1 *109:24 0
5 *540:A1 *112:31 0.000270943
*RES
1 *536:X *540:A1 32.6179 
*END

*D_NET *98 0.00306401
*CONN
*I *565:A2 I *D sky130_fd_sc_hd__o211a_1
*I *549:B_N I *D sky130_fd_sc_hd__and4bb_1
*I *537:X O *D sky130_fd_sc_hd__and2b_1
*CAP
1 *565:A2 0.000239261
2 *549:B_N 0.000242302
3 *537:X 0.000113895
4 *98:10 0.000595458
5 *549:B_N *549:D 5.52238e-05
6 *549:B_N *115:32 0.000442635
7 *565:A2 *542:A_N 3.25078e-05
8 *565:A2 *547:A 0.000266447
9 *565:A2 *107:60 0.000104298
10 *98:10 *537:B 5.71472e-05
11 *98:10 *542:A_N 8.68665e-05
12 *98:10 *547:A 2.41865e-05
13 *98:10 *134:54 0.000146474
14 *548:A *565:A2 3.93986e-05
15 *550:A1 *98:10 5.03772e-05
16 *565:C1 *565:A2 8.59554e-05
17 *56:14 *565:A2 0.000481575
*RES
1 *537:X *98:10 16.9964 
2 *98:10 *549:B_N 18.5679 
3 *98:10 *565:A2 21.7286 
*END

*D_NET *99 0.00534896
*CONN
*I *556:A I *D sky130_fd_sc_hd__nand2_1
*I *559:A1 I *D sky130_fd_sc_hd__a21o_1
*I *561:B I *D sky130_fd_sc_hd__nand3_1
*I *541:A2 I *D sky130_fd_sc_hd__a21o_1
*I *544:C I *D sky130_fd_sc_hd__nand3_1
*I *538:X O *D sky130_fd_sc_hd__and3b_1
*CAP
1 *556:A 0
2 *559:A1 0
3 *561:B 0.000166784
4 *541:A2 0.000190197
5 *544:C 1.91209e-05
6 *538:X 5.55492e-05
7 *99:29 0.000532255
8 *99:27 0.000606474
9 *99:21 0.000628308
10 *99:8 0.000271777
11 *541:A2 *113:29 0.000255416
12 *541:A2 *124:24 1.81709e-05
13 *561:B *113:29 0.000278657
14 *561:B *126:22 0
15 *99:8 *114:51 5.92185e-05
16 *99:8 *129:6 4.87953e-05
17 *99:8 *129:8 6.05161e-06
18 *99:21 *602:A 0.000577016
19 *99:21 *114:51 0.000267151
20 *99:21 *129:6 0.000101146
21 *99:27 *499:A 9.25014e-06
22 *99:27 *104:10 0
23 *99:27 *113:29 0
24 *99:27 *126:22 3.10049e-05
25 *556:B *99:21 0.000186662
26 *556:B *99:27 0
27 *557:A1 *541:A2 9.41642e-05
28 *557:A1 *99:29 0.000259934
29 *558:A2 *99:27 7.57869e-05
30 *558:A3 *99:27 0.0003103
31 *561:A *561:B 1.90936e-05
32 *562:B1 *541:A2 0.000210487
33 *591:D *541:A2 1.02504e-05
34 *60:51 *561:B 4.6025e-06
35 *60:70 *561:B 5.53366e-05
*RES
1 *538:X *99:8 10.675 
2 *99:8 *544:C 9.72857 
3 *99:8 *99:21 8.48214 
4 *99:21 *99:27 17.3214 
5 *99:27 *99:29 2.58929 
6 *99:29 *541:A2 22.7107 
7 *99:29 *561:B 22.0679 
8 *99:27 *559:A1 9.3 
9 *99:21 *556:A 9.3 
*END

*D_NET *100 0.00287287
*CONN
*I *540:A2 I *D sky130_fd_sc_hd__o21a_1
*I *539:X O *D sky130_fd_sc_hd__o2111a_1
*CAP
1 *540:A2 0.000816514
2 *539:X 0.000816514
3 *540:A2 *109:8 0.000224356
4 *540:A2 *114:37 4.37287e-05
5 *540:A2 *133:66 4.35567e-05
6 *540:A2 *134:43 5.74499e-06
7 *540:B1 *540:A2 0.000199737
8 *546:A4 *540:A2 5.71472e-05
9 *550:A1 *540:A2 0.000639903
10 *565:A1 *540:A2 2.56694e-05
*RES
1 *539:X *540:A2 42.35 
*END

*D_NET *101 0.00135072
*CONN
*I *545:A1 I *D sky130_fd_sc_hd__a31oi_1
*I *541:X O *D sky130_fd_sc_hd__a21o_1
*CAP
1 *545:A1 0.000419106
2 *541:X 0.000419106
3 *545:A1 *506:A 0
4 *541:A1 *545:A1 9.90431e-05
5 *544:A *545:A1 0.000336937
6 *545:A3 *545:A1 4.25809e-05
7 *562:B1 *545:A1 0
8 *90:22 *545:A1 3.39451e-05
9 *90:59 *545:A1 0
*RES
1 *541:X *545:A1 35.35 
*END

*D_NET *102 0.00297806
*CONN
*I *600:A I *D sky130_fd_sc_hd__clkbuf_16
*I *599:A I *D sky130_fd_sc_hd__clkbuf_16
*I *598:X O *D sky130_fd_sc_hd__clkbuf_16
*CAP
1 *600:A 0.000283892
2 *599:A 0.000597418
3 *598:X 2.23854e-05
4 *102:6 0.000903696
5 *599:A *133:74 5.52238e-05
6 *558:B1 *600:A 0.000183726
7 *590:D *600:A 0.000268403
8 *62:12 *599:A 0.000530276
9 *62:12 *600:A 0.000133035
*RES
1 *598:X *102:6 9.72857 
2 *102:6 *599:A 19.6929 
3 *102:6 *600:A 15.5857 
*END

*D_NET *103 0.011974
*CONN
*I *593:CLK I *D sky130_fd_sc_hd__dfxtp_1
*I *592:CLK I *D sky130_fd_sc_hd__dfxtp_1
*I *589:CLK I *D sky130_fd_sc_hd__dfxtp_1
*I *588:CLK I *D sky130_fd_sc_hd__dfxtp_1
*I *586:CLK I *D sky130_fd_sc_hd__dfxtp_1
*I *597:CLK I *D sky130_fd_sc_hd__dfxtp_1
*I *596:CLK I *D sky130_fd_sc_hd__dfxtp_2
*I *601:A I *D sky130_fd_sc_hd__clkinvlp_4
*I *594:CLK I *D sky130_fd_sc_hd__dfxtp_1
*I *595:CLK I *D sky130_fd_sc_hd__dfxtp_1
*I *599:X O *D sky130_fd_sc_hd__clkbuf_16
*CAP
1 *593:CLK 2.33083e-05
2 *592:CLK 0
3 *589:CLK 0
4 *588:CLK 0
5 *586:CLK 0
6 *597:CLK 0
7 *596:CLK 0.000532027
8 *601:A 0.000102887
9 *594:CLK 8.78864e-05
10 *595:CLK 0.000180405
11 *599:X 0
12 *103:63 0.000939677
13 *103:61 0.000697156
14 *103:59 0.000650777
15 *103:53 0.000786234
16 *103:51 0.000784019
17 *103:49 0.000837472
18 *103:16 0.00069182
19 *103:8 0.000578406
20 *103:6 0.000507098
21 *594:CLK *604:A 0.000122159
22 *594:CLK *605:A 9.47613e-05
23 *595:CLK *604:A 7.91941e-05
24 *601:A *114:51 0.000122081
25 *103:8 *497:A 7.83462e-05
26 *103:8 *563:A1 0.000141382
27 *103:16 *497:A 9.07151e-05
28 *103:16 *563:A1 0.000161134
29 *103:16 *604:A 5.52238e-05
30 *103:16 *129:18 0
31 *103:16 *129:31 4.65158e-06
32 *103:49 *497:A 0.000105879
33 *103:49 *563:A1 0.000225198
34 *103:51 *118:8 7.77751e-05
35 *103:59 *624:A 0
36 *103:59 *115:8 0.000196968
37 *103:59 *115:32 0
38 *103:61 *115:32 0
39 *103:63 *112:31 0
40 *103:63 *112:41 0
41 *540:A1 *103:63 0
42 *555:B *103:16 0
43 *564:B *103:49 0
44 *568:C1 *103:16 0
45 *576:A1 *596:CLK 6.03337e-05
46 *576:A2 *596:CLK 9.20361e-05
47 *576:B1 *594:CLK 0.00017089
48 *576:B1 *595:CLK 0.000131813
49 *576:B1 *596:CLK 0.00029847
50 *589:D *103:53 0.00113913
51 *589:D *103:59 0.00013001
52 *592:D *103:51 0.000103323
53 *595:D *595:CLK 1.64343e-05
54 *595:D *103:16 0
55 *597:D *596:CLK 0
56 *43:22 *593:CLK 2.28598e-05
57 *43:22 *103:51 0.000752673
58 *43:22 *103:53 9.77274e-05
59 *78:40 *103:49 0
60 *90:22 *594:CLK 3.69047e-06
*RES
1 *599:X *103:6 13.8 
2 *103:6 *103:8 1.94643 
3 *103:8 *103:16 12.2679 
4 *103:16 *595:CLK 14.1036 
5 *103:16 *594:CLK 13.5321 
6 *103:8 *601:A 15.9786 
7 *103:6 *103:49 12.5179 
8 *103:49 *103:51 10.3929 
9 *103:51 *103:53 12.4464 
10 *103:53 *103:59 12.2143 
11 *103:59 *103:61 4.98214 
12 *103:61 *103:63 7.41071 
13 *103:63 *596:CLK 25.2464 
14 *103:63 *597:CLK 13.8 
15 *103:61 *586:CLK 13.8 
16 *103:59 *588:CLK 13.8 
17 *103:53 *589:CLK 9.3 
18 *103:51 *592:CLK 9.3 
19 *103:49 *593:CLK 9.83571 
*END

*D_NET *104 0.0122602
*CONN
*I *590:CLK I *D sky130_fd_sc_hd__dfxtp_1
*I *585:CLK I *D sky130_fd_sc_hd__dfxtp_1
*I *591:CLK I *D sky130_fd_sc_hd__dfxtp_1
*I *508:A I *D sky130_fd_sc_hd__inv_2
*I *584:CLK I *D sky130_fd_sc_hd__dfxtp_1
*I *583:CLK I *D sky130_fd_sc_hd__dfxtp_1
*I *582:CLK I *D sky130_fd_sc_hd__dfxtp_1
*I *580:CLK I *D sky130_fd_sc_hd__dfxtp_1
*I *581:CLK I *D sky130_fd_sc_hd__dfxtp_1
*I *578:CLK I *D sky130_fd_sc_hd__dfxtp_1
*I *579:CLK I *D sky130_fd_sc_hd__dfxtp_1
*I *587:CLK I *D sky130_fd_sc_hd__dfxtp_1
*I *600:X O *D sky130_fd_sc_hd__clkbuf_16
*CAP
1 *590:CLK 1.87481e-05
2 *585:CLK 0.000193753
3 *591:CLK 0.000338417
4 *508:A 0
5 *584:CLK 8.95114e-05
6 *583:CLK 6.09893e-05
7 *582:CLK 0
8 *580:CLK 2.23854e-05
9 *581:CLK 9.06074e-05
10 *578:CLK 2.06112e-05
11 *579:CLK 6.21678e-05
12 *587:CLK 0.000144603
13 *600:X 0
14 *104:125 0.000663029
15 *104:114 0.000439862
16 *104:110 0.000455742
17 *104:88 0.000435398
18 *104:79 0.000616539
19 *104:66 0.00101853
20 *104:51 0.000828034
21 *104:42 0.000754951
22 *104:31 0.000829419
23 *104:10 0.000924207
24 *104:4 0.000801765
25 *581:CLK *513:A1 0
26 *581:CLK *132:29 0
27 *583:CLK *128:31 1.21289e-05
28 *584:CLK *523:A1 0.000168217
29 *584:CLK *524:B 0
30 *584:CLK *126:22 8.2958e-06
31 *585:CLK *527:A1 0.000155827
32 *585:CLK *631:A 2.89114e-05
33 *585:CLK *117:22 0.000130524
34 *587:CLK *515:A1 0.00010096
35 *590:CLK *517:A1 5.52302e-05
36 *591:CLK *527:A1 0.000482219
37 *591:CLK *631:A 7.77652e-05
38 *104:10 *515:A1 2.22043e-05
39 *104:10 *515:C1 6.15634e-05
40 *104:10 *114:55 0
41 *104:31 *515:A1 4.34543e-05
42 *104:79 *516:B 0
43 *104:79 *517:A1 9.88136e-05
44 *104:79 *130:21 0
45 *104:88 *522:A 0
46 *104:88 *524:B 0
47 *104:88 *126:22 1.31516e-05
48 *104:88 *130:21 0
49 *104:88 *130:32 0
50 *104:110 *517:A1 0.000184745
51 *104:114 *503:A 0
52 *104:114 *504:A 0
53 *104:114 *519:A1 0
54 *104:114 *527:C1 1.26512e-05
55 *104:114 *577:CLK 0.00012501
56 *104:125 *504:A 0
57 *104:125 *527:C1 5.85405e-05
58 *104:125 *117:22 0
59 *513:B1 *581:CLK 5.33882e-05
60 *515:B1 *587:CLK 1.3701e-05
61 *515:B1 *104:31 4.66203e-05
62 *525:A2 *583:CLK 2.89114e-05
63 *525:A2 *584:CLK 9.40245e-05
64 *578:D *581:CLK 3.92757e-05
65 *578:D *104:51 8.95186e-05
66 *579:D *104:42 1.64343e-05
67 *580:D *104:79 5.33978e-05
68 *581:D *581:CLK 4.1331e-06
69 *582:D *104:79 4.1331e-06
70 *582:D *104:88 5.80217e-05
71 *583:D *583:CLK 3.18676e-05
72 *590:D *104:10 8.85439e-05
73 *590:D *104:110 2.28499e-05
74 *591:D *591:CLK 0.000127067
75 *79:20 *104:10 0
76 *80:40 *587:CLK 8.15768e-05
77 *80:115 *104:79 0.000200413
78 *80:115 *104:88 0.000216771
79 *80:130 *104:88 0.000340073
80 *99:27 *104:10 0
*RES
1 *600:X *104:4 9.3 
2 *104:4 *104:10 14.8661 
3 *104:10 *587:CLK 16.3982 
4 *104:10 *104:31 6.83036 
5 *104:31 *579:CLK 10.5679 
6 *104:31 *104:42 9.98214 
7 *104:42 *578:CLK 9.72857 
8 *104:42 *104:51 1.35714 
9 *104:51 *581:CLK 20.3714 
10 *104:51 *104:66 9.98214 
11 *104:66 *580:CLK 9.72857 
12 *104:66 *104:79 11.8393 
13 *104:79 *582:CLK 13.8 
14 *104:79 *104:88 7.41071 
15 *104:88 *583:CLK 15.1571 
16 *104:88 *584:CLK 16.3536 
17 *104:4 *104:110 2.91071 
18 *104:110 *104:114 9.78571 
19 *104:114 *508:A 13.8 
20 *104:114 *104:125 7.05357 
21 *104:125 *591:CLK 18.6036 
22 *104:125 *585:CLK 13.9429 
23 *104:110 *590:CLK 9.83571 
*END

*D_NET *105 0.00305783
*CONN
*I *538:A_N I *D sky130_fd_sc_hd__and3b_1
*I *530:B I *D sky130_fd_sc_hd__nand2_1
*I *510:C I *D sky130_fd_sc_hd__nor4b_1
*I *606:A I *D sky130_fd_sc_hd__buf_2
*I *594:Q O *D sky130_fd_sc_hd__dfxtp_1
*CAP
1 *538:A_N 0.000102395
2 *530:B 0.000385624
3 *510:C 3.27802e-05
4 *606:A 0
5 *594:Q 0.000220716
6 *105:19 0.000493999
7 *105:17 0.000183267
8 *105:8 0.000225994
9 *510:C *135:16 6.4474e-05
10 *510:C *135:20 9.87983e-06
11 *510:C *137:10 9.10431e-06
12 *530:B *510:A 9.71197e-05
13 *530:B *543:A 5.52238e-05
14 *530:B *135:16 9.71197e-05
15 *530:B *135:20 5.41797e-06
16 *538:A_N *607:A 4.1331e-06
17 *538:A_N *114:51 2.59355e-05
18 *538:A_N *129:14 5.33005e-05
19 *538:A_N *135:20 0
20 *105:8 *135:16 0.000123145
21 *105:8 *137:10 0
22 *545:A2 *510:C 5.71472e-05
23 *545:A2 *530:B 2.58821e-05
24 *598:A *538:A_N 0.000160643
25 *598:A *105:8 0.000428612
26 *598:A *105:17 2.21972e-05
27 *91:8 *530:B 0.000173719
*RES
1 *594:Q *105:8 19.3893 
2 *105:8 *606:A 13.8 
3 *105:8 *105:17 0.276786 
4 *105:17 *105:19 0.946429 
5 *105:19 *510:C 14.9161 
6 *105:19 *530:B 20.9161 
7 *105:17 *538:A_N 16.4339 
*END

*D_NET *106 0.00320544
*CONN
*I *605:A I *D sky130_fd_sc_hd__buf_1
*I *604:A I *D sky130_fd_sc_hd__buf_2
*I *595:Q O *D sky130_fd_sc_hd__dfxtp_1
*CAP
1 *605:A 0.000956305
2 *604:A 0.000362906
3 *595:Q 0
4 *106:4 0.00131921
5 *605:A *137:31 4.46186e-06
6 *594:CLK *604:A 0.000122159
7 *594:CLK *605:A 9.47613e-05
8 *594:D *605:A 8.42801e-05
9 *595:CLK *604:A 7.91941e-05
10 *595:D *604:A 2.56601e-05
11 *598:A *605:A 0
12 *90:22 *605:A 0.000101277
13 *103:16 *604:A 5.52238e-05
*RES
1 *595:Q *106:4 9.3 
2 *106:4 *604:A 23.7643 
3 *106:4 *605:A 30.7464 
*END

*D_NET *107 0.0128088
*CONN
*I *533:B I *D sky130_fd_sc_hd__and2b_1
*I *563:A2 I *D sky130_fd_sc_hd__o41a_1
*I *497:A I *D sky130_fd_sc_hd__inv_2
*I *560:B I *D sky130_fd_sc_hd__or4_1
*I *552:B I *D sky130_fd_sc_hd__nor2_2
*I *510:A I *D sky130_fd_sc_hd__nor4b_1
*I *511:A I *D sky130_fd_sc_hd__or4b_4
*I *549:D I *D sky130_fd_sc_hd__and4bb_1
*I *534:B I *D sky130_fd_sc_hd__nand4_1
*I *596:Q O *D sky130_fd_sc_hd__dfxtp_2
*CAP
1 *533:B 1.49752e-05
2 *563:A2 0
3 *497:A 0.000326565
4 *560:B 0.000113639
5 *552:B 0
6 *510:A 2.63024e-05
7 *511:A 0.000173301
8 *549:D 3.92359e-05
9 *534:B 0
10 *596:Q 0.000173056
11 *107:74 0.000365868
12 *107:72 0.000216145
13 *107:70 0.000704609
14 *107:64 0.0011806
15 *107:60 0.00148872
16 *107:27 0.00142826
17 *107:21 0.000471351
18 *107:10 0.000416181
19 *497:A *129:14 5.38886e-05
20 *497:A *129:18 4.1331e-06
21 *511:A *510:D_N 2.06178e-05
22 *511:A *511:D_N 0.000134752
23 *511:A *528:A 9.90367e-05
24 *511:A *133:78 4.46186e-06
25 *511:A *136:12 9.90367e-05
26 *511:A *136:25 8.57535e-05
27 *511:A *137:10 7.79944e-05
28 *511:A *137:31 0.000228558
29 *533:B *109:24 5.33005e-05
30 *533:B *133:66 4.08637e-05
31 *560:B *560:A 3.34152e-05
32 *107:10 *534:C 1.02504e-05
33 *107:10 *136:58 1.02504e-05
34 *107:21 *534:C 6.81083e-05
35 *107:21 *542:A_N 9.69119e-06
36 *107:21 *133:47 7.04538e-05
37 *107:21 *136:58 5.58941e-05
38 *107:21 *136:69 0.00042054
39 *107:27 *542:A_N 5.74562e-05
40 *107:27 *109:24 0.000225616
41 *107:27 *133:51 5.52302e-05
42 *107:27 *133:66 9.90367e-05
43 *107:60 *542:A_N 4.56594e-05
44 *107:60 *547:A 7.8613e-05
45 *107:60 *563:B1 1.37292e-05
46 *107:64 *563:A1 0.000315158
47 *107:72 *560:A 5.74562e-05
48 *107:74 *560:A 4.46186e-06
49 *107:74 *133:78 0.000193025
50 *107:74 *135:20 7.26077e-05
51 *107:74 *137:10 6.42338e-05
52 *530:B *510:A 9.71197e-05
53 *545:A2 *510:A 5.03772e-05
54 *548:A *107:60 0.00012501
55 *549:B_N *549:D 5.52238e-05
56 *550:A2 *107:27 0
57 *550:A2 *107:60 0
58 *550:A3 *107:27 0.000171368
59 *550:A3 *107:60 9.25014e-06
60 *550:B1 *107:27 2.88424e-05
61 *554:B1 *107:60 5.41794e-05
62 *560:D *107:70 0.000269428
63 *564:B *107:60 7.22604e-05
64 *565:A2 *107:60 0.000104298
65 *565:C1 *107:60 0.000313109
66 *566:A2 *107:60 0.000320924
67 *566:A3 *107:60 7.15579e-05
68 *568:C1 *497:A 0
69 *568:C1 *511:A 0
70 *568:C1 *560:B 0
71 *574:A *107:21 0
72 *576:B1 *107:10 1.71774e-05
73 *588:D *107:60 0
74 *596:D *107:10 0
75 *56:8 *107:60 0.000142856
76 *56:14 *107:60 4.35452e-05
77 *60:88 *560:B 0.000123404
78 *60:88 *107:72 0.000125724
79 *60:88 *107:74 5.59013e-05
80 *78:40 *497:A 0
81 *89:48 *107:21 0
82 *89:48 *107:27 6.18233e-05
83 *89:76 *107:60 0.0002184
84 *103:8 *497:A 7.83462e-05
85 *103:16 *497:A 9.07151e-05
86 *103:49 *497:A 0.000105879
*RES
1 *596:Q *107:10 16.1929 
2 *107:10 *534:B 13.8 
3 *107:10 *107:21 10.6964 
4 *107:21 *107:27 10.4464 
5 *107:27 *549:D 14.3357 
6 *107:27 *107:60 35.25 
7 *107:60 *107:64 5.48214 
8 *107:64 *107:70 11.2143 
9 *107:70 *107:72 1.64286 
10 *107:72 *107:74 4.98214 
11 *107:74 *511:A 19.3536 
12 *107:74 *510:A 14.7464 
13 *107:72 *552:B 13.8 
14 *107:70 *560:B 15.9786 
15 *107:64 *497:A 25.1036 
16 *107:60 *563:A2 9.3 
17 *107:21 *533:B 9.83571 
*END

*D_NET *108 0.00707103
*CONN
*I *563:A1 I *D sky130_fd_sc_hd__o41a_1
*I *510:D_N I *D sky130_fd_sc_hd__nor4b_1
*I *603:A I *D sky130_fd_sc_hd__clkbuf_2
*I *597:Q O *D sky130_fd_sc_hd__dfxtp_1
*CAP
1 *563:A1 0.00043386
2 *510:D_N 0.000548205
3 *603:A 0
4 *597:Q 0.000152752
5 *108:21 0.0020802
6 *108:12 0.00125089
7 *510:D_N *112:41 0.00049557
8 *510:D_N *137:10 2.06178e-05
9 *108:12 *112:31 0
10 *108:12 *112:41 0
11 *108:12 *133:13 5.52302e-05
12 *108:12 *133:23 0
13 *108:21 *133:13 0.000304767
14 *108:21 *133:47 0.000269428
15 *511:A *510:D_N 2.06178e-05
16 *536:A2 *108:12 2.34136e-05
17 *555:B *563:A1 0
18 *564:B *563:A1 0
19 *62:12 *563:A1 0
20 *76:8 *108:21 0.000421028
21 *89:33 *108:21 0.000151577
22 *103:8 *563:A1 0.000141382
23 *103:16 *563:A1 0.000161134
24 *103:49 *563:A1 0.000225198
25 *107:64 *563:A1 0.000315158
*RES
1 *597:Q *108:12 21.0857 
2 *108:12 *603:A 9.3 
3 *108:12 *108:21 25.5714 
4 *108:21 *510:D_N 22.5136 
5 *108:21 *563:A1 23.7554 
*END

*D_NET *109 0.0101103
*CONN
*I *549:A_N I *D sky130_fd_sc_hd__and4bb_1
*I *507:A I *D sky130_fd_sc_hd__inv_2
*I *555:A I *D sky130_fd_sc_hd__or3b_1
*I *616:X O *D sky130_fd_sc_hd__buf_1
*CAP
1 *549:A_N 0.00015318
2 *507:A 9.26224e-05
3 *555:A 0.000214739
4 *616:X 0.0022628
5 *109:24 0.00147932
6 *109:8 0.00358794
7 *507:A *129:80 7.83366e-05
8 *549:A_N *115:32 4.87953e-05
9 *555:A *114:51 0.000437762
10 *555:A *129:80 2.61337e-05
11 *109:8 *112:31 6.67553e-05
12 *109:24 *114:51 0.000488493
13 *109:24 *133:66 0.000114461
14 *533:B *109:24 5.33005e-05
15 *540:A1 *109:24 0
16 *540:A2 *109:8 0.000224356
17 *540:B1 *109:8 2.65105e-05
18 *550:A2 *109:24 0
19 *550:B1 *109:24 0
20 *565:A1 *507:A 0
21 *586:D *109:8 0.000346131
22 *588:D *549:A_N 0.000173804
23 *588:D *109:24 9.25014e-06
24 *76:19 *555:A 0
25 *107:27 *109:24 0.000225616
*RES
1 *616:X *109:8 41.8536 
2 *109:8 *109:24 25.5179 
3 *109:24 *555:A 18.7643 
4 *109:24 *507:A 15.7464 
5 *109:8 *549:A_N 16.9964 
*END

*D_NET *110 0.00567488
*CONN
*I *619:A I *D sky130_fd_sc_hd__buf_2
*I *526:A I *D sky130_fd_sc_hd__or2_1
*I *585:Q O *D sky130_fd_sc_hd__dfxtp_1
*CAP
1 *619:A 0.000964834
2 *526:A 0.000198046
3 *585:Q 0
4 *110:4 0.00116288
5 *526:A *502:A 0.00012109
6 *526:A *557:B1 0
7 *526:A *585:D 2.56601e-05
8 *526:A *632:A 0
9 *619:A *500:A 0.000144773
10 *619:A *502:A 6.11433e-05
11 *619:A *523:A1 9.90367e-05
12 *619:A *633:A 0.000140933
13 *619:A *634:A 0.000877732
14 *619:A *635:A 2.47724e-05
15 *619:A *643:A 0.00070948
16 *619:A *117:22 0.000227797
17 *619:A *125:6 0.000186662
18 *619:A *152:10 0.000580978
19 *584:D *619:A 0.000149059
*RES
1 *585:Q *110:4 9.3 
2 *110:4 *526:A 21.4071 
3 *110:4 *619:A 36.8536 
*END

*D_NET *111 0.00863643
*CONN
*I *620:A I *D sky130_fd_sc_hd__buf_2
*I *608:A I *D sky130_fd_sc_hd__dlygate4sd3_1
*I *602:A I *D sky130_fd_sc_hd__clkbuf_2
*I *577:Q O *D sky130_fd_sc_hd__dfxtp_1
*CAP
1 *620:A 0
2 *608:A 0
3 *602:A 0.00145284
4 *577:Q 0
5 *111:42 0.00175008
6 *111:8 0.00153724
7 *111:6 0.00183449
8 *602:A *526:B 0.000227736
9 *602:A *114:51 0.000256231
10 *111:8 *509:A_N 0
11 *111:8 *526:B 0.000149911
12 *111:42 *509:A_N 0
13 *111:42 *526:B 0.000108111
14 *111:42 *635:A 0
15 *111:42 *116:10 0
16 *111:42 *126:22 0.000580846
17 *111:42 *128:31 0
18 adc_out[5] *111:42 0
19 adc_out[6] *111:42 0
20 *523:B1 *111:42 0.000113073
21 *556:B *602:A 4.88637e-05
22 *99:21 *602:A 0.000577016
*RES
1 *577:Q *111:6 13.8 
2 *111:6 *111:8 1.94643 
3 *111:8 *602:A 40.1929 
4 *111:8 *608:A 13.8 
5 *111:6 *111:42 46.3393 
6 *111:42 *620:A 9.3 
*END

*D_NET *112 0.0195593
*CONN
*I *536:B1 I *D sky130_fd_sc_hd__o21a_1
*I *506:A I *D sky130_fd_sc_hd__inv_2
*I *513:A1 I *D sky130_fd_sc_hd__o211a_1
*I *621:A I *D sky130_fd_sc_hd__buf_2
*I *586:Q O *D sky130_fd_sc_hd__dfxtp_1
*CAP
1 *536:B1 0
2 *506:A 0.000593151
3 *513:A1 0.00185656
4 *621:A 0.00148126
5 *586:Q 0
6 *112:41 0.00571036
7 *112:31 0.00422571
8 *112:4 0.00244633
9 *506:A *531:A 0.000382227
10 *506:A *531:C 0
11 *506:A *541:B1 0
12 *506:A *567:B1 5.52238e-05
13 *506:A *119:23 5.52238e-05
14 *506:A *136:12 0
15 *513:A1 *513:C1 0
16 *513:A1 *137:53 0.000169615
17 *621:A *622:A 0
18 *621:A *113:31 0.000184124
19 *112:41 *534:A 9.94224e-05
20 *112:41 *129:31 0.000537967
21 *112:41 *129:33 0.000143485
22 *112:41 *136:12 0
23 *112:41 *137:31 1.7276e-05
24 dac_in[2] *621:A 5.52238e-05
25 *510:D_N *112:41 0.00049557
26 *527:A2 *513:A1 5.38293e-05
27 *536:A2 *112:41 3.15282e-05
28 *540:A1 *112:31 0.000270943
29 *540:B1 *112:31 9.90367e-05
30 *544:B *506:A 0.000123957
31 *545:A1 *506:A 0
32 *545:A3 *506:A 6.65398e-05
33 *553:B1 *506:A 0
34 *581:CLK *513:A1 0
35 *581:D *513:A1 0
36 *586:D *112:31 0.000100624
37 *617:A *621:A 4.22908e-05
38 *80:81 *513:A1 5.15383e-05
39 *90:22 *112:41 0
40 *92:12 *506:A 9.48289e-05
41 *94:70 *506:A 4.87406e-05
42 *103:63 *112:31 0
43 *103:63 *112:41 0
44 *108:12 *112:31 0
45 *108:12 *112:41 0
46 *109:8 *112:31 6.67553e-05
*RES
1 *586:Q *112:4 9.3 
2 *112:4 *621:A 44.7286 
3 *112:4 *112:31 19.0893 
4 *112:31 *112:41 16.4869 
5 *112:41 *513:A1 26.8163 
6 *112:41 *506:A 26.7554 
7 *112:31 *536:B1 13.8 
*END

*D_NET *113 0.0178393
*CONN
*I *505:A I *D sky130_fd_sc_hd__inv_2
*I *622:A I *D sky130_fd_sc_hd__buf_2
*I *515:A1 I *D sky130_fd_sc_hd__o211a_1
*I *587:Q O *D sky130_fd_sc_hd__dfxtp_1
*CAP
1 *505:A 0.00012548
2 *622:A 5.40981e-05
3 *515:A1 0.000539567
4 *587:Q 7.15132e-05
5 *113:31 0.00433294
6 *113:29 0.00507349
7 *113:8 0.00128025
8 *505:A *541:B1 0
9 *505:A *630:A 0
10 *505:A *116:33 9.71197e-05
11 *113:29 *499:A 0
12 *113:29 *541:B1 0
13 *113:31 *623:A 1.83053e-05
14 *113:31 *116:33 0.0037646
15 dac_in[2] *113:31 8.07137e-06
16 *515:B1 *515:A1 0.000127802
17 *529:B *515:A1 7.90803e-05
18 *529:B *113:29 0.000168082
19 *541:A2 *113:29 0.000255416
20 *556:B *113:29 5.26091e-05
21 *561:B *113:29 0.000278657
22 *562:B1 *113:29 8.0087e-05
23 *587:CLK *515:A1 0.00010096
24 *587:D *515:A1 0
25 *587:D *113:8 0.000102197
26 *587:D *113:29 0
27 *591:D *113:29 4.75812e-05
28 *621:A *622:A 0
29 *621:A *113:31 0.000184124
30 *60:51 *113:29 5.84592e-05
31 *79:20 *515:A1 0
32 *79:20 *113:8 5.52238e-05
33 *79:20 *113:29 0.000168082
34 *80:15 *515:A1 5.52302e-05
35 *80:40 *515:A1 0.000415665
36 *90:22 *515:A1 0
37 *90:59 *113:29 0.000178912
38 *99:27 *113:29 0
39 *104:10 *515:A1 2.22043e-05
40 *104:31 *515:A1 4.34543e-05
*RES
1 *587:Q *113:8 15.5679 
2 *113:8 *515:A1 31.5679 
3 *113:8 *113:29 20.4107 
4 *113:29 *113:31 58.8571 
5 *113:31 *622:A 10.3357 
6 *113:29 *505:A 20.2821 
*END

*D_NET *114 0.0188592
*CONN
*I *546:B1 I *D sky130_fd_sc_hd__o41a_1
*I *504:A I *D sky130_fd_sc_hd__inv_2
*I *517:A1 I *D sky130_fd_sc_hd__o211a_1
*I *623:A I *D sky130_fd_sc_hd__buf_2
*I *588:Q O *D sky130_fd_sc_hd__dfxtp_1
*CAP
1 *546:B1 0
2 *504:A 0.00045304
3 *517:A1 0.000986025
4 *623:A 0.000364873
5 *588:Q 0.000194759
6 *114:55 0.00160569
7 *114:51 0.00263048
8 *114:37 0.00422512
9 *114:6 0.00232089
10 *504:A *117:22 2.61337e-05
11 *517:A1 *521:A1 0.00078742
12 *517:A1 *116:10 2.44318e-05
13 *517:A1 *137:104 0.00019197
14 *114:37 *547:C_N 0.000144038
15 *114:37 *115:32 6.2589e-06
16 *114:51 *129:8 3.02246e-05
17 *114:51 *129:14 0.000362078
18 *114:51 *133:66 2.26327e-05
19 *114:51 *134:39 9.91086e-05
20 *114:55 *519:A1 0
21 *517:A2 *517:A1 0.000197984
22 *521:B1 *517:A1 1.24368e-05
23 *538:A_N *114:51 2.59355e-05
24 *540:A2 *114:37 4.37287e-05
25 *550:A2 *114:37 5.52302e-05
26 *555:A *114:51 0.000437762
27 *556:B *114:51 0.000250932
28 *558:A2 *114:51 0.00014183
29 *565:A1 *114:37 0
30 *565:A1 *114:51 0
31 *565:B1 *114:37 5.86416e-05
32 *588:D *114:37 0.000277952
33 *590:CLK *517:A1 5.52302e-05
34 *590:D *517:A1 0.000344214
35 *601:A *114:51 0.000122081
36 *602:A *114:51 0.000256231
37 *56:14 *114:37 0.000573719
38 *80:115 *517:A1 0.000368104
39 *94:10 *114:37 3.52562e-05
40 *94:10 *114:51 1.00375e-05
41 *99:8 *114:51 5.92185e-05
42 *99:21 *114:51 0.000267151
43 *104:10 *114:55 0
44 *104:79 *517:A1 9.88136e-05
45 *104:110 *517:A1 0.000184745
46 *104:114 *504:A 0
47 *104:125 *504:A 0
48 *109:24 *114:51 0.000488493
49 *113:31 *623:A 1.83053e-05
*RES
1 *588:Q *114:6 11.4786 
2 *114:6 *623:A 24.7286 
3 *114:6 *114:37 30.5893 
4 *114:37 *114:51 48.6429 
5 *114:51 *114:55 6.75 
6 *114:55 *517:A1 48.1393 
7 *114:55 *504:A 20.9071 
8 *114:37 *546:B1 13.8 
*END

*D_NET *115 0.0156842
*CONN
*I *624:A I *D sky130_fd_sc_hd__buf_2
*I *503:A I *D sky130_fd_sc_hd__inv_2
*I *519:A1 I *D sky130_fd_sc_hd__o211a_1
*I *589:Q O *D sky130_fd_sc_hd__dfxtp_1
*CAP
1 *624:A 0.000195387
2 *503:A 0.000184225
3 *519:A1 0.000652143
4 *589:Q 0.000314284
5 *115:36 0.00173301
6 *115:32 0.00399829
7 *115:8 0.00361132
8 *503:A *509:B 0.000101545
9 *503:A *527:C1 1.26512e-05
10 *503:A *557:B1 0.000139913
11 *503:A *124:24 3.0285e-05
12 *519:A1 *509:B 0.000525393
13 *519:A1 *513:C1 5.37664e-05
14 *519:A1 *132:29 0
15 *519:A1 *137:53 2.59355e-05
16 *519:A1 *137:79 5.54432e-05
17 *519:A1 *137:87 0.000181796
18 *115:32 *527:C1 3.72222e-05
19 *115:32 *542:B_N 4.16729e-05
20 *115:32 *542:C 0.000139913
21 *115:32 *542:D 5.71472e-05
22 *115:32 *129:82 0.000170385
23 *115:36 *509:A_N 0.000102197
24 *115:36 *577:CLK 1.74352e-05
25 *115:36 *124:24 0.000294912
26 *527:A2 *503:A 7.58516e-05
27 *527:B1 *503:A 0.000139913
28 *549:A_N *115:32 4.87953e-05
29 *549:B_N *115:32 0.000442635
30 *549:C *115:32 0.000413332
31 *558:A3 *115:32 4.38265e-05
32 *561:A *115:32 0.000533173
33 *565:A1 *115:32 1.90936e-05
34 *581:D *519:A1 2.8266e-06
35 *60:51 *115:32 1.7845e-05
36 *60:70 *115:32 1.51367e-05
37 *80:81 *519:A1 7.83659e-05
38 *94:42 *115:32 0.000776579
39 *94:70 *115:32 0.000197386
40 *103:59 *624:A 0
41 *103:59 *115:8 0.000196968
42 *103:59 *115:32 0
43 *103:61 *115:32 0
44 *104:114 *503:A 0
45 *104:114 *519:A1 0
46 *114:37 *115:32 6.2589e-06
47 *114:55 *519:A1 0
*RES
1 *589:Q *115:8 18.0321 
2 *115:8 *115:32 45.7191 
3 *115:32 *115:36 16.5357 
4 *115:36 *519:A1 35.0679 
5 *115:36 *503:A 18.6214 
6 *115:8 *624:A 17.2643 
*END

*D_NET *116 0.0156904
*CONN
*I *521:A1 I *D sky130_fd_sc_hd__o211a_1
*I *625:A I *D sky130_fd_sc_hd__buf_2
*I *502:A I *D sky130_fd_sc_hd__inv_2
*I *590:Q O *D sky130_fd_sc_hd__dfxtp_1
*CAP
1 *521:A1 0.000534525
2 *625:A 3.82418e-05
3 *502:A 0.000270987
4 *590:Q 0
5 *116:33 0.00147305
6 *116:31 0.00154916
7 *116:10 0.000710792
8 *116:4 0.000859971
9 *502:A *585:D 0.000181796
10 *502:A *117:22 0.000313008
11 *116:10 *509:A_N 6.5185e-05
12 *116:10 *526:B 0
13 *116:10 *632:A 0.00019384
14 *116:31 *632:A 0.000221163
15 *116:33 *117:48 0.00015507
16 *116:33 *118:23 0.000248798
17 *116:33 *118:34 0.00392189
18 *505:A *116:33 9.71197e-05
19 *517:A1 *521:A1 0.00078742
20 *517:A1 *116:10 2.44318e-05
21 *521:B1 *521:A1 5.45515e-05
22 *526:A *502:A 0.00012109
23 *527:A2 *116:10 0
24 *527:A2 *116:31 0
25 *610:A *116:10 4.25716e-05
26 *619:A *502:A 6.11433e-05
27 *111:42 *116:10 0
28 *113:31 *116:33 0.0037646
*RES
1 *590:Q *116:4 9.3 
2 *116:4 *116:10 10.9286 
3 *116:10 *502:A 19.9607 
4 *116:10 *116:31 7.35714 
5 *116:31 *116:33 53.1071 
6 *116:33 *625:A 10.0321 
7 *116:4 *521:A1 20.1393 
*END

*D_NET *117 0.0108233
*CONN
*I *626:A I *D sky130_fd_sc_hd__buf_2
*I *523:A1 I *D sky130_fd_sc_hd__o211a_1
*I *501:A I *D sky130_fd_sc_hd__inv_2
*I *591:Q O *D sky130_fd_sc_hd__dfxtp_1
*CAP
1 *626:A 0
2 *523:A1 0.000103636
3 *501:A 0
4 *591:Q 0
5 *117:48 0.0017411
6 *117:22 0.00121897
7 *117:6 0.00285644
8 *523:A1 *525:C1 1.69115e-05
9 *523:A1 *126:22 0.000123288
10 *117:22 *527:A1 0.000586034
11 *117:22 *585:D 0.000228869
12 *117:22 *631:A 0
13 *117:48 *541:B1 0.000449546
14 *117:48 *630:A 0.000129515
15 *117:48 *631:A 0
16 *117:48 *118:23 0.000449546
17 *117:48 *118:34 0.00174636
18 *502:A *117:22 0.000313008
19 *504:A *117:22 2.61337e-05
20 *584:CLK *523:A1 0.000168217
21 *585:CLK *117:22 0.000130524
22 *610:A *117:22 5.33334e-05
23 *619:A *523:A1 9.90367e-05
24 *619:A *117:22 0.000227797
25 *104:125 *117:22 0
26 *116:33 *117:48 0.00015507
*RES
1 *591:Q *117:6 13.8 
2 *117:6 *117:22 25.7679 
3 *117:22 *501:A 9.3 
4 *117:22 *523:A1 21.4964 
5 *117:6 *117:48 43.8571 
6 *117:48 *626:A 9.3 
*END

*D_NET *118 0.0128928
*CONN
*I *500:A I *D sky130_fd_sc_hd__inv_2
*I *525:A1 I *D sky130_fd_sc_hd__o211a_1
*I *627:A I *D sky130_fd_sc_hd__buf_2
*I *563:B1 I *D sky130_fd_sc_hd__o41a_1
*I *592:Q O *D sky130_fd_sc_hd__dfxtp_1
*CAP
1 *500:A 0.00047618
2 *525:A1 2.03441e-05
3 *627:A 0
4 *563:B1 0.000322471
5 *592:Q 6.92248e-05
6 *118:34 0.00191993
7 *118:23 0.0016353
8 *118:8 0.000603588
9 *500:A *524:A 0.000363837
10 *500:A *634:A 0.000231464
11 *118:34 *525:C1 0.000142856
12 dac_in_n[2] *118:34 6.97494e-05
13 dac_in_n[3] *118:34 3.67257e-05
14 dac_in_n[5] *500:A 8.37135e-05
15 *525:B1 *500:A 0.000142053
16 *525:B1 *525:A1 5.7661e-06
17 *525:B1 *118:34 5.17614e-05
18 *563:A4 *563:B1 9.54798e-06
19 *565:C1 *563:B1 0
20 *566:A1 *563:B1 0
21 *592:D *563:B1 0
22 *619:A *500:A 0.000144773
23 *89:76 *563:B1 0.000105394
24 *103:51 *118:8 7.77751e-05
25 *107:60 *563:B1 1.37292e-05
26 *116:33 *118:23 0.000248798
27 *116:33 *118:34 0.00392189
28 *117:48 *118:23 0.000449546
29 *117:48 *118:34 0.00174636
*RES
1 *592:Q *118:8 15.1571 
2 *118:8 *563:B1 19.3893 
3 *118:8 *118:23 10.9821 
4 *118:23 *627:A 9.3 
5 *118:23 *118:34 49.5536 
6 *118:34 *525:A1 9.72857 
7 *118:34 *500:A 30.1393 
*END

*D_NET *119 0.00512384
*CONN
*I *499:A I *D sky130_fd_sc_hd__inv_2
*I *609:A I *D sky130_fd_sc_hd__dlygate4sd3_1
*I *628:A I *D sky130_fd_sc_hd__buf_2
*I *593:Q O *D sky130_fd_sc_hd__dfxtp_1
*CAP
1 *499:A 0.00102611
2 *609:A 0
3 *628:A 0.000146822
4 *593:Q 0
5 *119:23 0.00163993
6 *119:4 0.000760641
7 *499:A *527:C1 0.00012071
8 *499:A *557:B1 0.000322517
9 *499:A *567:B1 2.24763e-05
10 *628:A *120:16 0
11 *119:23 *567:B1 0.0002734
12 *506:A *119:23 5.52238e-05
13 *553:B1 *119:23 0.000109609
14 *557:A1 *499:A 0.00010096
15 *568:B1 *119:23 0.000197634
16 *591:D *499:A 0.000317082
17 *591:D *119:23 2.14757e-05
18 *99:27 *499:A 9.25014e-06
19 *113:29 *499:A 0
*RES
1 *593:Q *119:4 9.3 
2 *119:4 *628:A 20.55 
3 *119:4 *119:23 12.6071 
4 *119:23 *609:A 9.3 
5 *119:23 *499:A 34.3179 
*END

*D_NET *120 0.0169181
*CONN
*I *527:C1 I *D sky130_fd_sc_hd__o211a_1
*I *607:A I *D sky130_fd_sc_hd__buf_2
*I *617:X O *D sky130_fd_sc_hd__buf_1
*CAP
1 *527:C1 0.00180344
2 *607:A 0.000319152
3 *617:X 6.8104e-05
4 *120:16 0.00251532
5 *120:12 0.00521384
6 *120:10 0.00488921
7 *527:C1 *567:B1 0.000109792
8 *607:A *531:C 0
9 *607:A *538:B 0
10 *607:A *135:20 0.000408332
11 *607:A *135:33 5.83233e-05
12 dac_in[0] *120:10 0
13 dac_in[7] *120:16 0
14 *499:A *527:C1 0.00012071
15 *503:A *527:C1 1.26512e-05
16 *527:A2 *527:C1 0
17 *527:B1 *527:C1 7.40992e-05
18 *538:A_N *607:A 4.1331e-06
19 *551:A1 *120:16 2.35994e-05
20 *553:B1 *120:16 0
21 *561:A *527:C1 0.000183525
22 *567:A1 *120:16 5.36379e-05
23 *598:A *607:A 0
24 *628:A *120:16 0
25 *60:88 *607:A 3.02176e-05
26 *60:88 *120:16 3.24186e-05
27 *78:59 *527:C1 0.000163037
28 *92:12 *607:A 0
29 *94:42 *527:C1 0.000117072
30 *94:46 *607:A 2.57737e-05
31 *94:46 *120:16 1.66706e-05
32 *94:70 *527:C1 0.000566601
33 *104:114 *527:C1 1.26512e-05
34 *104:125 *527:C1 5.85405e-05
35 *115:32 *527:C1 3.72222e-05
*RES
1 *617:X *120:10 19.3357 
2 *120:10 *120:12 55.5714 
3 *120:12 *120:16 11.4554 
4 *120:16 *607:A 21.0589 
5 *120:16 *527:C1 27.336 
*END

*D_NET *121 0.000254877
*CONN
*I *629:A I *D sky130_fd_sc_hd__buf_2
*I *506:Y O *D sky130_fd_sc_hd__inv_2
*CAP
1 *629:A 0.000127438
2 *506:Y 0.000127438
3 *629:A *541:B1 0
*RES
1 *506:Y *629:A 29.5464 
*END

*D_NET *122 0.00289683
*CONN
*I *630:A I *D sky130_fd_sc_hd__buf_2
*I *541:B1 I *D sky130_fd_sc_hd__a21o_1
*I *505:Y O *D sky130_fd_sc_hd__inv_2
*CAP
1 *630:A 0.000137093
2 *541:B1 0.000739453
3 *505:Y 0
4 *122:4 0.000876546
5 *541:B1 *567:B1 0.000195072
6 dac_in_n[0] *541:B1 0
7 dac_in_n[1] *630:A 4.46186e-06
8 *505:A *541:B1 0
9 *505:A *630:A 0
10 *506:A *541:B1 0
11 *541:A1 *541:B1 0.000144773
12 *544:A *541:B1 2.07728e-05
13 *562:A2 *541:B1 8.3992e-05
14 *562:A3 *541:B1 4.90268e-05
15 *629:A *541:B1 0
16 *78:67 *541:B1 6.65745e-05
17 *113:29 *541:B1 0
18 *117:48 *541:B1 0.000449546
19 *117:48 *630:A 0.000129515
*RES
1 *505:Y *122:4 9.3 
2 *122:4 *541:B1 32.2107 
3 *122:4 *630:A 20.3893 
*END

*D_NET *123 0.000618884
*CONN
*I *631:A I *D sky130_fd_sc_hd__buf_2
*I *504:Y O *D sky130_fd_sc_hd__inv_2
*CAP
1 *631:A 0.000256103
2 *504:Y 0.000256103
3 *585:CLK *631:A 2.89114e-05
4 *591:CLK *631:A 7.77652e-05
5 *117:22 *631:A 0
6 *117:48 *631:A 0
*RES
1 *504:Y *631:A 31.3143 
*END

*D_NET *124 0.00673929
*CONN
*I *632:A I *D sky130_fd_sc_hd__buf_2
*I *551:B1 I *D sky130_fd_sc_hd__a21oi_1
*I *503:Y O *D sky130_fd_sc_hd__inv_2
*CAP
1 *632:A 0.000481259
2 *551:B1 0
3 *503:Y 0
4 *124:24 0.00110103
5 *124:4 0.00158229
6 *632:A *526:B 0
7 *632:A *585:D 3.25247e-05
8 *632:A *128:31 0.000357048
9 *124:24 *567:B1 6.98926e-05
10 *124:24 *577:CLK 0.000149164
11 *124:24 *126:22 0.00113582
12 *124:24 *128:31 0.000170385
13 *503:A *124:24 3.0285e-05
14 *526:A *632:A 0
15 *541:A1 *124:24 1.92789e-05
16 *541:A2 *124:24 1.81709e-05
17 *551:A2 *124:24 3.99614e-06
18 *557:A1 *124:24 0.000323897
19 *561:A *124:24 7.47649e-05
20 *562:A2 *124:24 0.000168733
21 *562:A3 *124:24 0.000135028
22 *562:B1 *124:24 0.000166555
23 *591:D *124:24 9.25014e-06
24 *115:36 *124:24 0.000294912
25 *116:10 *632:A 0.00019384
26 *116:31 *632:A 0.000221163
*RES
1 *503:Y *124:4 9.3 
2 *124:4 *124:24 43.5357 
3 *124:24 *551:B1 9.3 
4 *124:4 *632:A 27.6036 
*END

*D_NET *125 0.00537832
*CONN
*I *633:A I *D sky130_fd_sc_hd__buf_2
*I *557:B1 I *D sky130_fd_sc_hd__a21o_1
*I *502:Y O *D sky130_fd_sc_hd__inv_2
*CAP
1 *633:A 0.000225652
2 *557:B1 0.000618142
3 *502:Y 0.000119433
4 *125:6 0.000963228
5 *557:B1 *525:C1 0
6 *557:B1 *526:B 0
7 *557:B1 *567:B1 0.000883706
8 *557:B1 *128:31 0.00122537
9 *557:B1 *137:113 0
10 *633:A *525:C1 0.00027025
11 *499:A *557:B1 0.000322517
12 *503:A *557:B1 0.000139913
13 *526:A *557:B1 0
14 *527:B1 *557:B1 0.000282514
15 *619:A *633:A 0.000140933
16 *619:A *125:6 0.000186662
17 *60:70 *557:B1 0
*RES
1 *502:Y *125:6 11.0679 
2 *125:6 *557:B1 40.5143 
3 *125:6 *633:A 23.1214 
*END

*D_NET *126 0.00963543
*CONN
*I *634:A I *D sky130_fd_sc_hd__buf_2
*I *559:B1 I *D sky130_fd_sc_hd__a21o_1
*I *501:Y O *D sky130_fd_sc_hd__inv_2
*CAP
1 *634:A 0.000820842
2 *559:B1 0
3 *501:Y 0
4 *126:22 0.00199675
5 *126:4 0.00281759
6 *634:A *524:B 0
7 *634:A *611:A 5.71472e-05
8 *634:A *635:A 0
9 *126:22 *509:A_N 0.000146321
10 *126:22 *509:B 5.33005e-05
11 *126:22 *525:C1 5.97719e-05
12 *126:22 *577:CLK 8.41617e-05
13 *126:22 *137:113 1.08359e-05
14 dac_in_n[5] *634:A 5.33433e-05
15 *500:A *634:A 0.000231464
16 *523:A1 *126:22 0.000123288
17 *523:B1 *126:22 0.000208271
18 *558:A3 *126:22 7.83659e-05
19 *561:B *126:22 0
20 *584:CLK *126:22 8.2958e-06
21 *619:A *634:A 0.000877732
22 *60:70 *126:22 0.000123126
23 *80:130 *126:22 0.00012401
24 *99:27 *126:22 3.10049e-05
25 *104:88 *126:22 1.31516e-05
26 *111:42 *126:22 0.000580846
27 *124:24 *126:22 0.00113582
*RES
1 *501:Y *126:4 9.3 
2 *126:4 *126:22 49.4464 
3 *126:22 *559:B1 9.3 
4 *126:4 *634:A 42.3536 
*END

*D_NET *127 0.000789721
*CONN
*I *635:A I *D sky130_fd_sc_hd__buf_2
*I *500:Y O *D sky130_fd_sc_hd__inv_2
*CAP
1 *635:A 0.000337959
2 *500:Y 0.000337959
3 *635:A *611:A 0
4 *635:A *643:A 8.90314e-05
5 *619:A *635:A 2.47724e-05
6 *634:A *635:A 0
7 *111:42 *635:A 0
*RES
1 *500:Y *635:A 32.5464 
*END

*D_NET *128 0.012857
*CONN
*I *636:A I *D sky130_fd_sc_hd__buf_2
*I *567:B1 I *D sky130_fd_sc_hd__a21oi_1
*I *499:Y O *D sky130_fd_sc_hd__inv_2
*CAP
1 *636:A 0
2 *567:B1 0.00117206
3 *499:Y 0
4 *128:31 0.00236737
5 *128:4 0.00353943
6 *128:31 *522:A 6.04256e-05
7 *128:31 *523:C1 2.89016e-05
8 *128:31 *642:A 0.000540398
9 *128:31 *151:8 0.000202891
10 adc_out[6] *128:31 3.15196e-05
11 adc_out[7] *128:31 9.96215e-05
12 *499:A *567:B1 2.24763e-05
13 *506:A *567:B1 5.52238e-05
14 *525:A2 *128:31 0.000135028
15 *527:C1 *567:B1 0.000109792
16 *541:B1 *567:B1 0.000195072
17 *553:B1 *567:B1 0.000184745
18 *557:A1 *567:B1 6.40948e-05
19 *557:A2 *567:B1 2.44318e-05
20 *557:B1 *567:B1 0.000883706
21 *557:B1 *128:31 0.00122537
22 *558:A3 *567:B1 0.000358971
23 *562:A1 *567:B1 0.000262498
24 *562:A3 *567:B1 5.54856e-05
25 *583:CLK *128:31 1.21289e-05
26 *583:D *128:31 0.000173823
27 *591:D *567:B1 0
28 *632:A *128:31 0.000357048
29 *60:70 *567:B1 0.000180777
30 *80:130 *128:31 0
31 *111:42 *128:31 0
32 *119:23 *567:B1 0.0002734
33 *124:24 *567:B1 6.98926e-05
34 *124:24 *128:31 0.000170385
*RES
1 *499:Y *128:4 9.3 
2 *128:4 *567:B1 44.1036 
3 *128:4 *128:31 49.4643 
4 *128:31 *636:A 9.3 
*END

*D_NET *129 0.0108286
*CONN
*I *531:A I *D sky130_fd_sc_hd__and3_1
*I *538:C I *D sky130_fd_sc_hd__and3b_1
*I *530:A I *D sky130_fd_sc_hd__nand2_1
*I *539:D1 I *D sky130_fd_sc_hd__o2111a_1
*I *547:C_N I *D sky130_fd_sc_hd__nor3b_2
*I *542:D I *D sky130_fd_sc_hd__and4bb_1
*I *571:A1 I *D sky130_fd_sc_hd__a21o_1
*I *532:A I *D sky130_fd_sc_hd__nand3_1
*I *534:A I *D sky130_fd_sc_hd__nand4_1
*I *569:A I *D sky130_fd_sc_hd__or2_1
*I *602:X O *D sky130_fd_sc_hd__clkbuf_2
*CAP
1 *531:A 0.000333052
2 *538:C 0
3 *530:A 0
4 *539:D1 0
5 *547:C_N 0.000134631
6 *542:D 8.95943e-06
7 *571:A1 2.4977e-05
8 *532:A 9.09271e-06
9 *534:A 0.000161833
10 *569:A 0
11 *602:X 0.000137377
12 *129:82 0.000202403
13 *129:80 0.000852185
14 *129:61 0.000818349
15 *129:33 0.000325624
16 *129:31 0.000759678
17 *129:18 0.000903693
18 *129:14 0.000949868
19 *129:8 0.000696622
20 *129:6 0.000515896
21 *531:A *531:C 1.95435e-05
22 *531:A *538:B 0.000131331
23 *532:A *136:58 1.01912e-05
24 *534:A *534:C 0.000144773
25 *534:A *134:16 0.000258005
26 *547:C_N *547:B 0
27 *571:A1 *136:58 5.7836e-06
28 *129:80 *498:A 6.9757e-05
29 *129:80 *563:A3 9.60939e-05
30 *129:80 *571:B1 2.96504e-05
31 *129:80 *134:93 0
32 *129:80 *136:58 2.30116e-06
33 *129:82 *498:A 4.13496e-05
34 *497:A *129:14 5.38886e-05
35 *497:A *129:18 4.1331e-06
36 *506:A *531:A 0.000382227
37 *507:A *129:80 7.83366e-05
38 *538:A_N *129:14 5.33005e-05
39 *539:A1 *129:80 0.00010096
40 *549:C *542:D 5.52238e-05
41 *549:C *129:82 5.33005e-05
42 *555:A *129:80 2.61337e-05
43 *555:C_N *129:80 0
44 *562:A2 *531:A 0.000113271
45 *563:A4 *129:80 0
46 *565:B1 *547:C_N 2.28428e-05
47 *565:B1 *129:82 8.66063e-05
48 *568:C1 *129:14 0
49 *568:C1 *129:18 0
50 *573:A *534:A 3.34295e-05
51 *573:A *129:80 0
52 *573:B *532:A 4.6025e-06
53 *573:B *534:A 3.22304e-05
54 *573:B *129:80 0
55 *574:C *534:A 0.000227322
56 *76:19 *129:80 0
57 *78:10 *129:80 0
58 *89:27 *129:80 0
59 *89:76 *129:80 0
60 *92:12 *531:A 0.000126734
61 *94:10 *547:C_N 2.56601e-05
62 *99:8 *129:6 4.87953e-05
63 *99:8 *129:8 6.05161e-06
64 *99:21 *129:6 0.000101146
65 *103:16 *129:18 0
66 *103:16 *129:31 4.65158e-06
67 *112:41 *534:A 9.94224e-05
68 *112:41 *129:31 0.000537967
69 *112:41 *129:33 0.000143485
70 *114:37 *547:C_N 0.000144038
71 *114:51 *129:8 3.02246e-05
72 *114:51 *129:14 0.000362078
73 *115:32 *542:D 5.71472e-05
74 *115:32 *129:82 0.000170385
*RES
1 *602:X *129:6 11.8893 
2 *129:6 *129:8 0.946429 
3 *129:8 *129:14 16.4286 
4 *129:14 *129:18 4.10714 
5 *129:18 *569:A 13.8 
6 *129:18 *129:31 5.17512 
7 *129:31 *129:33 0.407333 
8 *129:33 *534:A 21.875 
9 *129:33 *532:A 17.4868 
10 *129:31 *129:61 3.41 
11 *129:61 *571:A1 14.0768 
12 *129:61 *129:80 18.1518 
13 *129:80 *129:82 2.17857 
14 *129:82 *542:D 9.83571 
15 *129:82 *547:C_N 21.1571 
16 *129:80 *539:D1 9.3 
17 *129:14 *530:A 13.8 
18 *129:8 *538:C 9.3 
19 *129:6 *531:A 26.2821 
*END

*D_NET *130 0.00425762
*CONN
*I *524:B I *D sky130_fd_sc_hd__or2_1
*I *522:B I *D sky130_fd_sc_hd__or2_1
*I *520:B I *D sky130_fd_sc_hd__or2_1
*I *516:B I *D sky130_fd_sc_hd__or2_1
*I *618:X O *D sky130_fd_sc_hd__buf_1
*CAP
1 *524:B 0.000400909
2 *522:B 0
3 *520:B 2.3671e-05
4 *516:B 0.000177331
5 *618:X 0.000308292
6 *130:32 0.000527481
7 *130:21 0.000463782
8 *130:8 0.000799161
9 *516:B *516:A 5.52238e-05
10 *520:B *520:A 5.52302e-05
11 *524:B *522:A 7.252e-05
12 *130:8 *640:A 0.000187951
13 *130:8 *137:87 0.000358971
14 *130:8 *137:104 9.71197e-05
15 *130:21 *150:12 0
16 *130:32 *522:A 5.80706e-06
17 *525:A2 *524:B 0
18 *582:D *130:21 0
19 *584:CLK *524:B 0
20 *584:D *524:B 0.000153054
21 *634:A *524:B 0
22 *80:98 *130:8 0.00048746
23 *80:115 *130:8 8.36572e-05
24 *104:79 *516:B 0
25 *104:79 *130:21 0
26 *104:88 *524:B 0
27 *104:88 *130:21 0
28 *104:88 *130:32 0
*RES
1 *618:X *130:8 22.55 
2 *130:8 *516:B 16.8893 
3 *130:8 *130:21 5.58929 
4 *130:21 *520:B 14.3357 
5 *130:21 *130:32 2.25 
6 *130:32 *522:B 13.8 
7 *130:32 *524:B 21.5143 
*END

*D_NET *131 0.00520339
*CONN
*I *637:A I *D sky130_fd_sc_hd__buf_2
*I *512:A I *D sky130_fd_sc_hd__or2_1
*I *578:Q O *D sky130_fd_sc_hd__dfxtp_1
*CAP
1 *637:A 0.00104275
2 *512:A 0.000143689
3 *578:Q 7.72725e-05
4 *131:10 0.00126372
5 *512:A *638:A 0.000308124
6 *637:A *638:A 0.00232208
7 *131:10 *132:29 4.57538e-05
*RES
1 *578:Q *131:10 19.9429 
2 *131:10 *512:A 12.7286 
3 *131:10 *637:A 34.9071 
*END

*D_NET *132 0.00598649
*CONN
*I *514:B I *D sky130_fd_sc_hd__or2_1
*I *526:B I *D sky130_fd_sc_hd__or2_1
*I *618:A I *D sky130_fd_sc_hd__buf_1
*I *518:B I *D sky130_fd_sc_hd__or2_1
*I *512:B I *D sky130_fd_sc_hd__or2_1
*I *644:X O *D sky130_fd_sc_hd__buf_1
*CAP
1 *514:B 0
2 *526:B 0.000474211
3 *618:A 0
4 *518:B 1.1624e-05
5 *512:B 0
6 *644:X 0.000304789
7 *132:31 1.1624e-05
8 *132:29 0.000980241
9 *132:18 0.00128611
10 *132:12 0.00108487
11 *518:B *518:A 5.52238e-05
12 *132:12 *514:A 5.52302e-05
13 *132:12 *142:10 0
14 *132:18 *514:A 0.000163587
15 *132:18 *638:A 0.000873198
16 *132:29 *517:C1 0
17 *132:29 *638:A 9.90367e-05
18 *132:29 *149:12 0
19 *513:B1 *132:29 0
20 *515:B1 *132:12 0
21 *519:A1 *132:29 0
22 *557:B1 *526:B 0
23 *579:D *132:12 0
24 *581:CLK *132:29 0
25 *581:D *132:29 0
26 *602:A *526:B 0.000227736
27 *632:A *526:B 0
28 *80:98 *518:B 5.52238e-05
29 *111:8 *526:B 0.000149911
30 *111:42 *526:B 0.000108111
31 *116:10 *526:B 0
32 *131:10 *132:29 4.57538e-05
*RES
1 *644:X *132:12 23.5143 
2 *132:12 *132:18 12.0714 
3 *132:18 *512:B 9.3 
4 *132:18 *132:29 13.4643 
5 *132:29 *132:31 4.5 
6 *132:31 *518:B 9.83571 
7 *132:31 *618:A 9.3 
8 *132:29 *526:B 23.6393 
9 *132:12 *514:B 9.3 
*END

*D_NET *133 0.0114832
*CONN
*I *542:A_N I *D sky130_fd_sc_hd__and4bb_1
*I *546:A1 I *D sky130_fd_sc_hd__o41a_1
*I *552:A I *D sky130_fd_sc_hd__nor2_2
*I *560:A I *D sky130_fd_sc_hd__or4_1
*I *543:A I *D sky130_fd_sc_hd__or4_1
*I *511:D_N I *D sky130_fd_sc_hd__or4b_4
*I *533:A_N I *D sky130_fd_sc_hd__and2b_1
*I *535:A I *D sky130_fd_sc_hd__or2_1
*I *575:A I *D sky130_fd_sc_hd__nand2_1
*I *536:A1 I *D sky130_fd_sc_hd__o21a_1
*I *603:X O *D sky130_fd_sc_hd__clkbuf_2
*CAP
1 *542:A_N 0.000223061
2 *546:A1 4.00486e-05
3 *552:A 0
4 *560:A 0.000266686
5 *543:A 2.36895e-05
6 *511:D_N 0.00013065
7 *533:A_N 0
8 *535:A 0
9 *575:A 0.000223312
10 *536:A1 3.18784e-05
11 *603:X 0
12 *133:78 0.000387501
13 *133:76 0.000499847
14 *133:74 0.000489497
15 *133:66 0.000797016
16 *133:51 0.000291141
17 *133:47 0.000410544
18 *133:23 0.000492193
19 *133:13 0.000583096
20 *133:4 0.000182282
21 *511:D_N *528:A 2.44318e-05
22 *511:D_N *543:C 4.49803e-05
23 *511:D_N *136:25 0.000139913
24 *542:A_N *134:54 9.10431e-06
25 *542:A_N *136:69 0
26 *560:A *135:33 1.58163e-05
27 *133:66 *134:39 0.000125731
28 *133:66 *134:43 5.52302e-05
29 *133:66 *134:80 5.97398e-05
30 *133:66 *134:93 0.000183713
31 *133:66 *136:69 1.37292e-05
32 *133:74 *134:80 0
33 *511:A *511:D_N 0.000134752
34 *511:A *133:78 4.46186e-06
35 *528:B *511:D_N 1.74352e-05
36 *530:B *543:A 5.52238e-05
37 *533:B *133:66 4.08637e-05
38 *536:A2 *575:A 9.71197e-05
39 *540:A2 *133:66 4.35567e-05
40 *546:A4 *546:A1 9.60939e-05
41 *546:A4 *133:66 9.61455e-05
42 *546:A4 *133:74 0.000349841
43 *548:A *542:A_N 9.71197e-05
44 *549:C *542:A_N 9.71197e-05
45 *550:A3 *542:A_N 0.00017309
46 *555:C_N *133:74 0.000119125
47 *560:B *560:A 3.34152e-05
48 *560:D *560:A 0.000137983
49 *565:A2 *542:A_N 3.25078e-05
50 *570:B *511:D_N 0
51 *574:A *133:23 5.03402e-05
52 *574:C *133:23 0
53 *575:B *575:A 7.50601e-05
54 *597:D *575:A 0
55 *599:A *133:74 5.52238e-05
56 *60:6 *133:74 1.98839e-05
57 *62:12 *133:74 0.000914844
58 *89:33 *133:47 5.41609e-05
59 *89:48 *542:A_N 5.90443e-06
60 *89:48 *133:23 2.78729e-05
61 *89:48 *133:47 7.26935e-05
62 *91:23 *511:D_N 0
63 *91:23 *133:78 0
64 *91:27 *133:74 0.000988109
65 *94:10 *133:66 0.000127446
66 *95:10 *133:23 4.37618e-05
67 *95:12 *575:A 0.000130419
68 *95:12 *133:23 0.00010096
69 *98:10 *542:A_N 8.68665e-05
70 *107:21 *542:A_N 9.69119e-06
71 *107:21 *133:47 7.04538e-05
72 *107:27 *542:A_N 5.74562e-05
73 *107:27 *133:51 5.52302e-05
74 *107:27 *133:66 9.90367e-05
75 *107:60 *542:A_N 4.56594e-05
76 *107:72 *560:A 5.74562e-05
77 *107:74 *560:A 4.46186e-06
78 *107:74 *133:78 0.000193025
79 *108:12 *133:13 5.52302e-05
80 *108:12 *133:23 0
81 *108:21 *133:13 0.000304767
82 *108:21 *133:47 0.000269428
83 *109:24 *133:66 0.000114461
84 *114:51 *133:66 2.26327e-05
*RES
1 *603:X *133:4 9.3 
2 *133:4 *536:A1 9.83571 
3 *133:4 *133:13 3.82143 
4 *133:13 *133:23 14.4643 
5 *133:23 *575:A 22.425 
6 *133:23 *535:A 9.3 
7 *133:13 *133:47 9.64286 
8 *133:47 *133:51 5.03571 
9 *133:51 *533:A_N 9.3 
10 *133:51 *133:66 17.6607 
11 *133:66 *133:74 17.0179 
12 *133:74 *133:76 4.5 
13 *133:76 *133:78 4.98214 
14 *133:78 *511:D_N 17.4071 
15 *133:78 *543:A 14.3357 
16 *133:76 *560:A 18.6393 
17 *133:74 *552:A 9.3 
18 *133:66 *546:A1 10.675 
19 *133:47 *542:A_N 20.0321 
*END

*D_NET *134 0.0102799
*CONN
*I *543:C I *D sky130_fd_sc_hd__or4_1
*I *571:B1 I *D sky130_fd_sc_hd__a21o_1
*I *532:B I *D sky130_fd_sc_hd__nand3_1
*I *563:A3 I *D sky130_fd_sc_hd__o41a_1
*I *539:C1 I *D sky130_fd_sc_hd__o2111a_1
*I *546:A3 I *D sky130_fd_sc_hd__o41a_1
*I *547:A I *D sky130_fd_sc_hd__nor3b_2
*I *542:B_N I *D sky130_fd_sc_hd__and4bb_1
*I *537:B I *D sky130_fd_sc_hd__and2b_1
*I *534:C I *D sky130_fd_sc_hd__nand4_1
*I *604:X O *D sky130_fd_sc_hd__buf_2
*CAP
1 *543:C 0.000429009
2 *571:B1 4.00918e-05
3 *532:B 1.846e-05
4 *563:A3 0.000303941
5 *539:C1 0
6 *546:A3 0
7 *547:A 0.00014679
8 *542:B_N 7.17483e-05
9 *537:B 4.77737e-05
10 *534:C 0.000214488
11 *604:X 0
12 *134:93 0.00051173
13 *134:80 0.0003224
14 *134:54 0.000281185
15 *134:43 0.000251887
16 *134:39 0.000596494
17 *134:16 0.000739304
18 *134:10 0.000270966
19 *134:6 0.000217968
20 *134:4 0.000538779
21 *532:B *136:40 3.08382e-06
22 *534:C *534:D 7.31843e-05
23 *543:C *136:25 0.000255136
24 *543:C *136:40 0.000303747
25 *547:A *547:B 0.000157967
26 *547:A *136:80 9.25014e-06
27 *547:A *136:91 9.15804e-05
28 *563:A3 *498:A 0.000321697
29 *134:6 *136:40 0.000370115
30 *134:10 *136:40 3.97657e-05
31 *134:10 *136:42 3.18676e-05
32 *134:10 *136:58 2.89114e-05
33 *134:16 *136:58 6.26531e-05
34 *134:39 *136:69 0
35 *134:43 *537:A_N 5.52302e-05
36 *134:54 *136:69 3.34366e-05
37 *134:54 *136:80 0.000137931
38 *511:D_N *543:C 4.49803e-05
39 *534:A *534:C 0.000144773
40 *534:A *134:16 0.000258005
41 *539:B1 *563:A3 5.48376e-05
42 *539:B1 *134:93 5.32956e-05
43 *540:A2 *134:43 5.74499e-06
44 *542:A_N *134:54 9.10431e-06
45 *546:A2 *134:93 5.52238e-05
46 *550:A1 *537:B 1.39726e-05
47 *550:A1 *134:43 2.60984e-05
48 *565:A1 *134:93 0.000213706
49 *565:A2 *547:A 0.000266447
50 *565:C1 *563:A3 4.44929e-05
51 *566:A1 *563:A3 0.00010096
52 *568:C1 *543:C 6.20855e-06
53 *570:B *543:C 0.000260654
54 *573:A *134:39 0
55 *573:B *134:10 5.71472e-05
56 *573:B *134:16 9.66581e-05
57 *574:A *534:C 0
58 *574:C *534:C 1.02936e-05
59 *596:D *534:C 0
60 *56:14 *547:A 2.28499e-05
61 *76:19 *134:39 0
62 *78:10 *563:A3 8.6229e-06
63 *78:10 *134:93 2.37761e-05
64 *89:27 *571:B1 0
65 *93:19 *134:6 0.000227539
66 *93:19 *134:10 0.000214198
67 *95:6 *534:C 6.05161e-06
68 *98:10 *537:B 5.71472e-05
69 *98:10 *547:A 2.41865e-05
70 *98:10 *134:54 0.000146474
71 *107:10 *534:C 1.02504e-05
72 *107:21 *534:C 6.81083e-05
73 *107:60 *547:A 7.8613e-05
74 *114:51 *134:39 9.91086e-05
75 *115:32 *542:B_N 4.16729e-05
76 *129:80 *563:A3 9.60939e-05
77 *129:80 *571:B1 2.96504e-05
78 *129:80 *134:93 0
79 *133:66 *134:39 0.000125731
80 *133:66 *134:43 5.52302e-05
81 *133:66 *134:80 5.97398e-05
82 *133:66 *134:93 0.000183713
83 *133:74 *134:80 0
*RES
1 *604:X *134:4 9.3 
2 *134:4 *134:6 3.82143 
3 *134:6 *134:10 3.01786 
4 *134:10 *134:16 4.78571 
5 *134:16 *534:C 22.4786 
6 *134:16 *134:39 15.1964 
7 *134:39 *134:43 2.60714 
8 *134:43 *537:B 10.2464 
9 *134:43 *134:54 6.75 
10 *134:54 *542:B_N 14.7643 
11 *134:54 *547:A 18.2107 
12 *134:39 *134:80 1.78571 
13 *134:80 *546:A3 9.3 
14 *134:80 *134:93 13.625 
15 *134:93 *539:C1 9.3 
16 *134:93 *563:A3 24.6214 
17 *134:10 *532:B 9.72857 
18 *134:6 *571:B1 19.0321 
19 *134:4 *543:C 27.7643 
*END

*D_NET *135 0.00418985
*CONN
*I *511:B I *D sky130_fd_sc_hd__or4b_4
*I *510:B I *D sky130_fd_sc_hd__nor4b_1
*I *538:B I *D sky130_fd_sc_hd__and3b_1
*I *531:B I *D sky130_fd_sc_hd__and3_1
*I *560:C I *D sky130_fd_sc_hd__or4_1
*I *605:X O *D sky130_fd_sc_hd__buf_1
*CAP
1 *511:B 0
2 *510:B 0
3 *538:B 0.000288431
4 *531:B 0
5 *560:C 0
6 *605:X 0.000200301
7 *135:33 0.00050235
8 *135:20 0.000462946
9 *135:16 0.000396848
10 *135:6 0.000348121
11 *538:B *531:C 9.01237e-05
12 *135:6 *136:12 0.000136951
13 *135:6 *137:31 4.8843e-05
14 *135:16 *137:10 0
15 *135:20 *137:10 0.000125731
16 *510:C *135:16 6.4474e-05
17 *510:C *135:20 9.87983e-06
18 *530:B *135:16 9.71197e-05
19 *530:B *135:20 5.41797e-06
20 *531:A *538:B 0.000131331
21 *538:A_N *135:20 0
22 *545:A2 *135:16 4.58976e-05
23 *560:A *135:33 1.58163e-05
24 *562:A2 *538:B 0.000129515
25 *562:A2 *135:33 0.000144773
26 *607:A *538:B 0
27 *607:A *135:20 0.000408332
28 *607:A *135:33 5.83233e-05
29 *60:88 *135:20 0.000120187
30 *60:88 *135:33 2.58997e-05
31 *79:20 *135:16 1.33343e-05
32 *92:12 *538:B 0.000123153
33 *105:8 *135:16 0.000123145
34 *107:74 *135:20 7.26077e-05
*RES
1 *605:X *135:6 11.8893 
2 *135:6 *135:16 12.4286 
3 *135:16 *135:20 11.9107 
4 *135:20 *560:C 13.8 
5 *135:20 *135:33 7.82143 
6 *135:33 *531:B 9.3 
7 *135:33 *538:B 24.6393 
8 *135:16 *510:B 9.3 
9 *135:6 *511:B 9.3 
*END

*D_NET *136 0.0119909
*CONN
*I *531:C I *D sky130_fd_sc_hd__and3_1
*I *571:A2 I *D sky130_fd_sc_hd__a21o_1
*I *532:C I *D sky130_fd_sc_hd__nand3_1
*I *547:B I *D sky130_fd_sc_hd__nor3b_2
*I *498:A I *D sky130_fd_sc_hd__inv_2
*I *542:C I *D sky130_fd_sc_hd__and4bb_1
*I *537:A_N I *D sky130_fd_sc_hd__and2b_1
*I *534:D I *D sky130_fd_sc_hd__nand4_1
*I *569:B I *D sky130_fd_sc_hd__or2_1
*I *511:C I *D sky130_fd_sc_hd__or4b_4
*I *606:X O *D sky130_fd_sc_hd__buf_2
*CAP
1 *531:C 0.000256924
2 *571:A2 0
3 *532:C 0
4 *547:B 0.000104144
5 *498:A 0.000230693
6 *542:C 9.93685e-05
7 *537:A_N 1.40355e-05
8 *534:D 4.29578e-05
9 *569:B 0
10 *511:C 0
11 *606:X 0
12 *136:91 0.000377031
13 *136:80 0.000206839
14 *136:69 0.000408883
15 *136:58 0.000918601
16 *136:42 0.000559601
17 *136:40 0.000363442
18 *136:25 0.000822558
19 *136:12 0.00064332
20 *136:6 0.000427599
21 *136:12 *137:31 7.07785e-05
22 *506:A *531:C 0
23 *506:A *136:12 0
24 *511:A *136:12 9.90367e-05
25 *511:A *136:25 8.57535e-05
26 *511:D_N *136:25 0.000139913
27 *528:B *136:25 2.36784e-05
28 *531:A *531:C 1.95435e-05
29 *532:A *136:58 1.01912e-05
30 *532:B *136:40 3.08382e-06
31 *534:C *534:D 7.31843e-05
32 *538:B *531:C 9.01237e-05
33 *539:A1 *498:A 0.00010096
34 *542:A_N *136:69 0
35 *543:C *136:25 0.000255136
36 *543:C *136:40 0.000303747
37 *547:A *547:B 0.000157967
38 *547:A *136:80 9.25014e-06
39 *547:A *136:91 9.15804e-05
40 *547:C_N *547:B 0
41 *548:A *498:A 9.71197e-05
42 *549:C *498:A 0.000266479
43 *550:A1 *537:A_N 2.89114e-05
44 *563:A3 *498:A 0.000321697
45 *565:B1 *498:A 9.71197e-05
46 *571:A1 *136:58 5.7836e-06
47 *572:A *136:40 2.89016e-05
48 *572:C *136:40 1.74352e-05
49 *573:A *136:69 0
50 *574:C *534:D 0.000136951
51 *574:C *136:58 0.000449546
52 *598:A *531:C 0.000326686
53 *598:A *136:12 0.000217428
54 *607:A *531:C 0
55 *89:6 *136:25 0.000273269
56 *89:16 *136:25 0.000171313
57 *89:16 *136:40 0.00027214
58 *94:10 *547:B 1.52978e-05
59 *94:10 *136:69 6.19181e-05
60 *94:10 *136:80 7.2754e-05
61 *94:10 *136:91 5.10822e-05
62 *94:27 *498:A 0.000402985
63 *95:6 *534:D 1.55885e-05
64 *107:10 *136:58 1.02504e-05
65 *107:21 *136:58 5.58941e-05
66 *107:21 *136:69 0.00042054
67 *112:41 *136:12 0
68 *115:32 *542:C 0.000139913
69 *129:80 *498:A 6.9757e-05
70 *129:80 *136:58 2.30116e-06
71 *129:82 *498:A 4.13496e-05
72 *133:66 *136:69 1.37292e-05
73 *134:6 *136:40 0.000370115
74 *134:10 *136:40 3.97657e-05
75 *134:10 *136:42 3.18676e-05
76 *134:10 *136:58 2.89114e-05
77 *134:16 *136:58 6.26531e-05
78 *134:39 *136:69 0
79 *134:43 *537:A_N 5.52302e-05
80 *134:54 *136:69 3.34366e-05
81 *134:54 *136:80 0.000137931
82 *135:6 *136:12 0.000136951
*RES
1 *606:X *136:6 13.8 
2 *136:6 *136:12 9.125 
3 *136:12 *511:C 9.3 
4 *136:12 *136:25 10.3393 
5 *136:25 *569:B 9.3 
6 *136:25 *136:40 10.25 
7 *136:40 *136:42 0.535714 
8 *136:42 *136:58 21.9107 
9 *136:58 *534:D 15.1571 
10 *136:58 *136:69 7.41071 
11 *136:69 *537:A_N 14.3357 
12 *136:69 *136:80 1.94643 
13 *136:80 *542:C 15.1571 
14 *136:80 *136:91 1.33929 
15 *136:91 *498:A 22.3 
16 *136:91 *547:B 16.05 
17 *136:42 *532:C 9.3 
18 *136:40 *571:A2 9.3 
19 *136:6 *531:C 19.8893 
*END

*D_NET *137 0.0140072
*CONN
*I *519:C1 I *D sky130_fd_sc_hd__o211a_1
*I *525:C1 I *D sky130_fd_sc_hd__o211a_1
*I *523:C1 I *D sky130_fd_sc_hd__o211a_1
*I *521:C1 I *D sky130_fd_sc_hd__o211a_1
*I *517:C1 I *D sky130_fd_sc_hd__o211a_1
*I *509:B I *D sky130_fd_sc_hd__and2b_1
*I *513:C1 I *D sky130_fd_sc_hd__o211a_1
*I *515:C1 I *D sky130_fd_sc_hd__o211a_1
*I *529:A I *D sky130_fd_sc_hd__nand2_2
*I *528:A I *D sky130_fd_sc_hd__and2_2
*I *607:X O *D sky130_fd_sc_hd__buf_2
*CAP
1 *519:C1 0
2 *525:C1 0.000263655
3 *523:C1 2.61224e-05
4 *521:C1 0
5 *517:C1 8.60098e-05
6 *509:B 0.000225884
7 *513:C1 0.00011132
8 *515:C1 0.000169361
9 *529:A 2.30826e-05
10 *528:A 1.96666e-05
11 *607:X 0.000201197
12 *137:113 0.000530539
13 *137:104 0.00055117
14 *137:87 0.00100585
15 *137:79 0.000720731
16 *137:55 0.000337204
17 *137:53 0.000687939
18 *137:40 0.000931937
19 *137:31 0.000910457
20 *137:10 0.000922306
21 *509:B *577:CLK 5.33005e-05
22 *517:C1 *149:12 0
23 *503:A *509:B 0.000101545
24 *510:C *137:10 9.10431e-06
25 *510:D_N *137:10 2.06178e-05
26 *511:A *528:A 9.90367e-05
27 *511:A *137:10 7.79944e-05
28 *511:A *137:31 0.000228558
29 *511:D_N *528:A 2.44318e-05
30 *513:A1 *513:C1 0
31 *513:A1 *137:53 0.000169615
32 *517:A1 *137:104 0.00019197
33 *517:A2 *517:C1 5.29461e-05
34 *517:A2 *137:104 5.41794e-05
35 *519:A1 *509:B 0.000525393
36 *519:A1 *513:C1 5.37664e-05
37 *519:A1 *137:53 2.59355e-05
38 *519:A1 *137:79 5.54432e-05
39 *519:A1 *137:87 0.000181796
40 *519:B1 *137:87 0.000288864
41 *523:A1 *525:C1 1.69115e-05
42 *523:B1 *525:C1 9.25014e-06
43 *523:B1 *137:113 0.000151333
44 *525:A2 *525:C1 0
45 *527:A2 *509:B 0.000623889
46 *527:A2 *513:C1 0.000170955
47 *528:B *528:A 0.000144773
48 *528:B *137:31 0.000388424
49 *529:B *137:31 5.52302e-05
50 *545:A2 *137:31 0.000332473
51 *557:B1 *525:C1 0
52 *557:B1 *137:113 0
53 *568:C1 *137:10 0
54 *598:A *137:31 0
55 *605:A *137:31 4.46186e-06
56 *633:A *525:C1 0.00027025
57 *79:20 *137:31 2.07382e-05
58 *80:15 *137:31 5.71472e-05
59 *80:98 *137:87 0.000154182
60 *80:115 *137:104 1.91512e-05
61 *80:115 *137:113 4.1331e-06
62 *80:130 *137:113 7.25984e-05
63 *90:10 *529:A 0
64 *90:10 *137:31 0.000145449
65 *90:10 *137:40 5.62995e-05
66 *90:12 *137:31 0.000175251
67 *90:22 *137:31 5.52302e-05
68 *104:10 *515:C1 6.15634e-05
69 *105:8 *137:10 0
70 *107:74 *137:10 6.42338e-05
71 *112:41 *137:31 1.7276e-05
72 *118:34 *525:C1 0.000142856
73 *126:22 *509:B 5.33005e-05
74 *126:22 *525:C1 5.97719e-05
75 *126:22 *137:113 1.08359e-05
76 *128:31 *523:C1 2.89016e-05
77 *130:8 *137:87 0.000358971
78 *130:8 *137:104 9.71197e-05
79 *132:29 *517:C1 0
80 *135:6 *137:31 4.8843e-05
81 *135:16 *137:10 0
82 *135:20 *137:10 0.000125731
83 *136:12 *137:31 7.07785e-05
*RES
1 *607:X *137:10 22.675 
2 *137:10 *528:A 10.6571 
3 *137:10 *137:31 24.375 
4 *137:31 *529:A 9.72857 
5 *137:31 *137:40 3.41071 
6 *137:40 *515:C1 20.8536 
7 *137:40 *137:53 9.57143 
8 *137:53 *137:55 4.5 
9 *137:55 *513:C1 16.3536 
10 *137:55 *509:B 22.3536 
11 *137:53 *137:79 2.19643 
12 *137:79 *137:87 10.8571 
13 *137:87 *517:C1 20.2464 
14 *137:87 *137:104 11.3393 
15 *137:104 *521:C1 13.8 
16 *137:104 *137:113 4.98214 
17 *137:113 *523:C1 14.3357 
18 *137:113 *525:C1 20.1393 
19 *137:79 *519:C1 9.3 
*END

*D_NET *138 0.00094995
*CONN
*I *577:CLK I *D sky130_fd_sc_hd__dfxtp_1
*I *508:Y O *D sky130_fd_sc_hd__inv_2
*CAP
1 *577:CLK 0.000126244
2 *508:Y 0.000126244
3 *577:CLK *509:A_N 0.00026839
4 *509:B *577:CLK 5.33005e-05
5 *104:114 *577:CLK 0.00012501
6 *115:36 *577:CLK 1.74352e-05
7 *124:24 *577:CLK 0.000149164
8 *126:22 *577:CLK 8.41617e-05
*RES
1 *508:Y *577:CLK 32.2429 
*END

*D_NET *139 0.00133675
*CONN
*I *509:A_N I *D sky130_fd_sc_hd__and2b_1
*I *608:X O *D sky130_fd_sc_hd__dlygate4sd3_1
*CAP
1 *509:A_N 0.00029285
2 *608:X 0.00029285
3 *577:CLK *509:A_N 0.00026839
4 *577:D *509:A_N 0.000168957
5 *111:8 *509:A_N 0
6 *111:42 *509:A_N 0
7 *115:36 *509:A_N 0.000102197
8 *116:10 *509:A_N 6.5185e-05
9 *126:22 *509:A_N 0.000146321
*RES
1 *608:X *509:A_N 35.5286 
*END

*D_NET *140 0.00261699
*CONN
*I *527:A1 I *D sky130_fd_sc_hd__o211a_1
*I *609:X O *D sky130_fd_sc_hd__dlygate4sd3_1
*CAP
1 *527:A1 0.000611015
2 *609:X 0.000611015
3 *585:CLK *527:A1 0.000155827
4 *591:CLK *527:A1 0.000482219
5 *591:D *527:A1 0.00017088
6 *117:22 *527:A1 0.000586034
*RES
1 *609:X *527:A1 31.6179 
*END

*D_NET *141 0.000718876
*CONN
*I *585:D I *D sky130_fd_sc_hd__dfxtp_1
*I *610:X O *D sky130_fd_sc_hd__dlygate4sd3_1
*CAP
1 *585:D 0.000125013
2 *610:X 0.000125013
3 *502:A *585:D 0.000181796
4 *526:A *585:D 2.56601e-05
5 *632:A *585:D 3.25247e-05
6 *117:22 *585:D 0.000228869
*RES
1 *610:X *585:D 31.158 
*END

*D_NET *142 0.0067758
*CONN
*I *638:A I *D sky130_fd_sc_hd__buf_2
*I *514:A I *D sky130_fd_sc_hd__or2_1
*I *579:Q O *D sky130_fd_sc_hd__dfxtp_1
*CAP
1 *638:A 0.0011392
2 *514:A 0.000179594
3 *579:Q 0.00014983
4 *142:10 0.00146863
5 *512:A *638:A 0.000308124
6 *513:B1 *638:A 1.72894e-05
7 *637:A *638:A 0.00232208
8 *132:12 *514:A 5.52302e-05
9 *132:12 *142:10 0
10 *132:18 *514:A 0.000163587
11 *132:18 *638:A 0.000873198
12 *132:29 *638:A 9.90367e-05
*RES
1 *579:Q *142:10 20.55 
2 *142:10 *514:A 13.55 
3 *142:10 *638:A 42.0143 
*END

*D_NET *143 0.000673003
*CONN
*I *524:A I *D sky130_fd_sc_hd__or2_1
*I *611:X O *D sky130_fd_sc_hd__dlygate4sd3_1
*CAP
1 *524:A 0.000100385
2 *611:X 0.000100385
3 dac_in_n[5] *524:A 7.43578e-06
4 *500:A *524:A 0.000363837
5 *525:B1 *524:A 0.00010096
*RES
1 *611:X *524:A 22.0107 
*END

*D_NET *144 0.000692223
*CONN
*I *516:A I *D sky130_fd_sc_hd__or2_1
*I *612:X O *D sky130_fd_sc_hd__dlygate4sd3_1
*CAP
1 *516:A 0.000318499
2 *612:X 0.000318499
3 *516:B *516:A 5.52238e-05
*RES
1 *612:X *516:A 24.0643 
*END

*D_NET *145 0.000330794
*CONN
*I *520:A I *D sky130_fd_sc_hd__or2_1
*I *613:X O *D sky130_fd_sc_hd__dlygate4sd3_1
*CAP
1 *520:A 0.000137782
2 *613:X 0.000137782
3 *520:B *520:A 5.52302e-05
*RES
1 *613:X *520:A 20.7786 
*END

*D_NET *146 0.00129989
*CONN
*I *522:A I *D sky130_fd_sc_hd__or2_1
*I *614:X O *D sky130_fd_sc_hd__dlygate4sd3_1
*CAP
1 *522:A 0.000564411
2 *614:X 0.000564411
3 *522:A *151:8 2.27416e-05
4 *524:B *522:A 7.252e-05
5 *583:D *522:A 9.57507e-06
6 *104:88 *522:A 0
7 *128:31 *522:A 6.04256e-05
8 *130:32 *522:A 5.80706e-06
*RES
1 *614:X *522:A 35.4214 
*END

*D_NET *147 0.000556137
*CONN
*I *518:A I *D sky130_fd_sc_hd__or2_1
*I *615:X O *D sky130_fd_sc_hd__dlygate4sd3_1
*CAP
1 *518:A 0.000165731
2 *615:X 0.000165731
3 *518:B *518:A 5.52238e-05
4 *80:98 *518:A 0.000169451
*RES
1 *615:X *518:A 22.0107 
*END

*D_NET *148 0.00219292
*CONN
*I *612:A I *D sky130_fd_sc_hd__dlygate4sd3_1
*I *639:A I *D sky130_fd_sc_hd__buf_2
*I *580:Q O *D sky130_fd_sc_hd__dfxtp_1
*CAP
1 *612:A 9.78013e-05
2 *639:A 0.000637698
3 *580:Q 0.000360959
4 *148:8 0.00109646
*RES
1 *580:Q *148:8 18.0321 
2 *148:8 *639:A 24.5143 
3 *148:8 *612:A 15.4429 
*END

*D_NET *149 0.00352911
*CONN
*I *640:A I *D sky130_fd_sc_hd__buf_2
*I *615:A I *D sky130_fd_sc_hd__dlygate4sd3_1
*I *581:Q O *D sky130_fd_sc_hd__dfxtp_1
*CAP
1 *640:A 0.00122654
2 *615:A 0
3 *581:Q 0.000240346
4 *149:12 0.00146688
5 *517:C1 *149:12 0
6 *80:98 *640:A 4.08637e-05
7 *80:98 *149:12 0.000272371
8 *80:115 *640:A 9.41642e-05
9 *130:8 *640:A 0.000187951
10 *132:29 *149:12 0
*RES
1 *581:Q *149:12 22.8357 
2 *149:12 *615:A 9.3 
3 *149:12 *640:A 30.7821 
*END

*D_NET *150 0.00188067
*CONN
*I *641:A I *D sky130_fd_sc_hd__buf_2
*I *613:A I *D sky130_fd_sc_hd__dlygate4sd3_1
*I *582:Q O *D sky130_fd_sc_hd__dfxtp_1
*CAP
1 *641:A 0.000737143
2 *613:A 0
3 *582:Q 0.00020319
4 *150:12 0.000940333
5 *130:21 *150:12 0
*RES
1 *582:Q *150:12 21.6036 
2 *150:12 *613:A 9.3 
3 *150:12 *641:A 21.7464 
*END

*D_NET *151 0.00175278
*CONN
*I *642:A I *D sky130_fd_sc_hd__buf_2
*I *614:A I *D sky130_fd_sc_hd__dlygate4sd3_1
*I *583:Q O *D sky130_fd_sc_hd__dfxtp_1
*CAP
1 *642:A 0.000340352
2 *614:A 0
3 *583:Q 0.000153022
4 *151:8 0.000493373
5 *522:A *151:8 2.27416e-05
6 *128:31 *642:A 0.000540398
7 *128:31 *151:8 0.000202891
*RES
1 *583:Q *151:8 13.4429 
2 *151:8 *614:A 9.3 
3 *151:8 *642:A 18.4607 
*END

*D_NET *152 0.00315989
*CONN
*I *611:A I *D sky130_fd_sc_hd__dlygate4sd3_1
*I *643:A I *D sky130_fd_sc_hd__buf_2
*I *584:Q O *D sky130_fd_sc_hd__dfxtp_1
*CAP
1 *611:A 0.000230904
2 *643:A 0.000203601
3 *584:Q 0.000409688
4 *152:10 0.000844192
5 dac_in_n[5] *611:A 3.48705e-05
6 *619:A *643:A 0.00070948
7 *619:A *152:10 0.000580978
8 *634:A *611:A 5.71472e-05
9 *635:A *611:A 0
10 *635:A *643:A 8.90314e-05
*RES
1 *584:Q *152:10 19.9964 
2 *152:10 *643:A 20.4964 
3 *152:10 *611:A 18.1214 
*END
