*SPEF "ieee 1481-1999"
*DESIGN "controller"
*DATE "17:02:50 Tuesday December 16, 2025"
*VENDOR "The OpenROAD Project"
*PROGRAM "OpenROAD"
*VERSION "edf00dff99f6c40d67a30c0e22a8191c5d2ed9d6"
*DESIGN_FLOW "NAME_SCOPE LOCAL" "PIN_CAP NONE"
*DIVIDER /
*DELIMITER :
*BUS_DELIMITER []
*T_UNIT 1 NS
*C_UNIT 1 PF
*R_UNIT 1 OHM
*L_UNIT 1 HENRY

*NAME_MAP
*3 adc_out[0]
*4 adc_out[1]
*5 adc_out[2]
*6 adc_out[3]
*7 adc_out[4]
*8 adc_out[5]
*9 adc_out[6]
*10 adc_out[7]
*11 clk
*12 comp
*13 comparator_clk
*14 dac_in[0]
*15 dac_in[1]
*16 dac_in[2]
*17 dac_in[3]
*18 dac_in[4]
*19 dac_in[5]
*20 dac_in[6]
*21 dac_in[7]
*22 dac_in_n[0]
*23 dac_in_n[1]
*24 dac_in_n[2]
*25 dac_in_n[3]
*26 dac_in_n[4]
*27 dac_in_n[5]
*28 dac_in_n[6]
*29 dac_in_n[7]
*30 rst_n
*31 _001_
*32 _002_
*33 _003_
*34 _004_
*35 _005_
*36 _006_
*37 _007_
*38 _008_
*39 _009_
*40 _010_
*41 _011_
*42 _012_
*43 _013_
*44 _014_
*45 _015_
*46 _016_
*47 _017_
*48 _018_
*49 _019_
*50 _020_
*51 _021_
*52 _022_
*53 _023_
*54 _024_
*55 _025_
*56 _026_
*57 _027_
*58 _028_
*59 _029_
*60 _030_
*61 _031_
*62 _032_
*63 _033_
*64 _034_
*65 _035_
*66 _036_
*67 _037_
*68 _038_
*69 _039_
*70 _040_
*71 _041_
*72 _042_
*73 _043_
*74 _044_
*75 _045_
*76 _046_
*77 _047_
*78 _048_
*79 _049_
*80 _050_
*81 _051_
*82 _052_
*83 _053_
*84 _054_
*85 _055_
*86 _056_
*87 _057_
*88 _058_
*89 _059_
*90 _060_
*91 _061_
*92 _062_
*93 _063_
*94 _064_
*95 _065_
*96 _066_
*97 _067_
*98 _068_
*99 _069_
*100 _070_
*101 _071_
*102 clknet_0_clk
*103 clknet_1_0__leaf_clk
*104 clknet_1_1__leaf_clk
*105 count\[0\]
*106 count\[1\]
*107 count\[2\]
*108 count\[3\]
*109 net1
*110 net10
*111 net11
*112 net12
*113 net13
*114 net14
*115 net15
*116 net16
*117 net17
*118 net18
*119 net19
*120 net2
*121 net20
*122 net21
*123 net22
*124 net23
*125 net24
*126 net25
*127 net26
*128 net27
*129 net28
*130 net29
*131 net3
*132 net30
*133 net31
*134 net32
*135 net33
*136 net34
*137 net35
*138 net36
*139 net37
*140 net38
*141 net39
*142 net4
*143 net40
*144 net41
*145 net42
*146 net43
*147 net5
*148 net6
*149 net7
*150 net8
*151 net9
*152 FILLER_0_109
*153 FILLER_0_113
*154 FILLER_0_125
*155 FILLER_0_137
*156 FILLER_0_141
*157 FILLER_0_15
*158 FILLER_0_153
*159 FILLER_0_165
*160 FILLER_0_169
*161 FILLER_0_181
*162 FILLER_0_187
*163 FILLER_0_193
*164 FILLER_0_197
*165 FILLER_0_209
*166 FILLER_0_221
*167 FILLER_0_225
*168 FILLER_0_237
*169 FILLER_0_249
*170 FILLER_0_253
*171 FILLER_0_265
*172 FILLER_0_27
*173 FILLER_0_273
*174 FILLER_0_281
*175 FILLER_0_29
*176 FILLER_0_3
*177 FILLER_0_41
*178 FILLER_0_53
*179 FILLER_0_57
*180 FILLER_0_69
*181 FILLER_0_81
*182 FILLER_0_85
*183 FILLER_0_97
*184 FILLER_1_110
*185 FILLER_1_113
*186 FILLER_1_125
*187 FILLER_1_147
*188 FILLER_1_15
*189 FILLER_1_159
*190 FILLER_1_167
*191 FILLER_1_201
*192 FILLER_1_207
*193 FILLER_1_230
*194 FILLER_1_252
*195 FILLER_1_264
*196 FILLER_1_27
*197 FILLER_1_276
*198 FILLER_1_281
*199 FILLER_1_3
*200 FILLER_1_39
*201 FILLER_1_51
*202 FILLER_1_55
*203 FILLER_1_73
*204 FILLER_1_92
*205 FILLER_2_119
*206 FILLER_2_133
*207 FILLER_2_15
*208 FILLER_2_155
*209 FILLER_2_167
*210 FILLER_2_175
*211 FILLER_2_189
*212 FILLER_2_195
*213 FILLER_2_197
*214 FILLER_2_203
*215 FILLER_2_223
*216 FILLER_2_244
*217 FILLER_2_261
*218 FILLER_2_27
*219 FILLER_2_273
*220 FILLER_2_285
*221 FILLER_2_29
*222 FILLER_2_3
*223 FILLER_2_41
*224 FILLER_2_53
*225 FILLER_2_61
*226 FILLER_2_75
*227 FILLER_2_82
*228 FILLER_2_90
*229 FILLER_2_94
*230 FILLER_3_102
*231 FILLER_3_111
*232 FILLER_3_113
*233 FILLER_3_125
*234 FILLER_3_132
*235 FILLER_3_15
*236 FILLER_3_151
*237 FILLER_3_162
*238 FILLER_3_169
*239 FILLER_3_181
*240 FILLER_3_193
*241 FILLER_3_201
*242 FILLER_3_233
*243 FILLER_3_237
*244 FILLER_3_243
*245 FILLER_3_255
*246 FILLER_3_267
*247 FILLER_3_27
*248 FILLER_3_279
*249 FILLER_3_281
*250 FILLER_3_3
*251 FILLER_3_39
*252 FILLER_3_51
*253 FILLER_3_55
*254 FILLER_3_57
*255 FILLER_3_63
*256 FILLER_3_74
*257 FILLER_3_86
*258 FILLER_3_98
*259 FILLER_4_103
*260 FILLER_4_124
*261 FILLER_4_136
*262 FILLER_4_145
*263 FILLER_4_15
*264 FILLER_4_155
*265 FILLER_4_164
*266 FILLER_4_172
*267 FILLER_4_178
*268 FILLER_4_190
*269 FILLER_4_197
*270 FILLER_4_209
*271 FILLER_4_221
*272 FILLER_4_233
*273 FILLER_4_261
*274 FILLER_4_27
*275 FILLER_4_273
*276 FILLER_4_285
*277 FILLER_4_29
*278 FILLER_4_3
*279 FILLER_4_41
*280 FILLER_4_53
*281 FILLER_4_65
*282 FILLER_4_77
*283 FILLER_4_83
*284 FILLER_4_91
*285 FILLER_5_108
*286 FILLER_5_113
*287 FILLER_5_117
*288 FILLER_5_143
*289 FILLER_5_147
*290 FILLER_5_169
*291 FILLER_5_175
*292 FILLER_5_18
*293 FILLER_5_221
*294 FILLER_5_225
*295 FILLER_5_239
*296 FILLER_5_251
*297 FILLER_5_263
*298 FILLER_5_275
*299 FILLER_5_279
*300 FILLER_5_281
*301 FILLER_5_30
*302 FILLER_5_38
*303 FILLER_5_57
*304 FILLER_5_6
*305 FILLER_5_66
*306 FILLER_5_72
*307 FILLER_5_80
*308 FILLER_5_99
*309 FILLER_6_106
*310 FILLER_6_116
*311 FILLER_6_128
*312 FILLER_6_15
*313 FILLER_6_152
*314 FILLER_6_160
*315 FILLER_6_168
*316 FILLER_6_180
*317 FILLER_6_192
*318 FILLER_6_219
*319 FILLER_6_231
*320 FILLER_6_244
*321 FILLER_6_253
*322 FILLER_6_265
*323 FILLER_6_27
*324 FILLER_6_277
*325 FILLER_6_285
*326 FILLER_6_29
*327 FILLER_6_3
*328 FILLER_6_41
*329 FILLER_6_53
*330 FILLER_6_65
*331 FILLER_6_73
*332 FILLER_7_100
*333 FILLER_7_110
*334 FILLER_7_113
*335 FILLER_7_121
*336 FILLER_7_134
*337 FILLER_7_15
*338 FILLER_7_154
*339 FILLER_7_158
*340 FILLER_7_169
*341 FILLER_7_183
*342 FILLER_7_195
*343 FILLER_7_207
*344 FILLER_7_222
*345 FILLER_7_225
*346 FILLER_7_263
*347 FILLER_7_27
*348 FILLER_7_275
*349 FILLER_7_279
*350 FILLER_7_281
*351 FILLER_7_3
*352 FILLER_7_39
*353 FILLER_7_57
*354 FILLER_7_69
*355 FILLER_7_77
*356 FILLER_8_115
*357 FILLER_8_123
*358 FILLER_8_145
*359 FILLER_8_15
*360 FILLER_8_153
*361 FILLER_8_157
*362 FILLER_8_165
*363 FILLER_8_191
*364 FILLER_8_195
*365 FILLER_8_227
*366 FILLER_8_231
*367 FILLER_8_235
*368 FILLER_8_253
*369 FILLER_8_264
*370 FILLER_8_27
*371 FILLER_8_276
*372 FILLER_8_29
*373 FILLER_8_3
*374 FILLER_8_41
*375 FILLER_8_69
*376 FILLER_8_81
*377 FILLER_8_85
*378 FILLER_8_97
*379 FILLER_9_10
*380 FILLER_9_102
*381 FILLER_9_110
*382 FILLER_9_113
*383 FILLER_9_121
*384 FILLER_9_133
*385 FILLER_9_141
*386 FILLER_9_153
*387 FILLER_9_159
*388 FILLER_9_167
*389 FILLER_9_169
*390 FILLER_9_173
*391 FILLER_9_178
*392 FILLER_9_190
*393 FILLER_9_201
*394 FILLER_9_209
*395 FILLER_9_216
*396 FILLER_9_225
*397 FILLER_9_248
*398 FILLER_9_26
*399 FILLER_9_265
*400 FILLER_9_273
*401 FILLER_9_281
*402 FILLER_9_29
*403 FILLER_9_45
*404 FILLER_9_53
*405 FILLER_9_57
*406 FILLER_9_64
*407 FILLER_9_76
*408 FILLER_9_83
*409 FILLER_9_85
*410 FILLER_9_97
*411 PHY_EDGE_ROW_0_Left_10
*412 PHY_EDGE_ROW_0_Right_0
*413 PHY_EDGE_ROW_1_Left_11
*414 PHY_EDGE_ROW_1_Right_1
*415 PHY_EDGE_ROW_2_Left_12
*416 PHY_EDGE_ROW_2_Right_2
*417 PHY_EDGE_ROW_3_Left_13
*418 PHY_EDGE_ROW_3_Right_3
*419 PHY_EDGE_ROW_4_Left_14
*420 PHY_EDGE_ROW_4_Right_4
*421 PHY_EDGE_ROW_5_Left_15
*422 PHY_EDGE_ROW_5_Right_5
*423 PHY_EDGE_ROW_6_Left_16
*424 PHY_EDGE_ROW_6_Right_6
*425 PHY_EDGE_ROW_7_Left_17
*426 PHY_EDGE_ROW_7_Right_7
*427 PHY_EDGE_ROW_8_Left_18
*428 PHY_EDGE_ROW_8_Right_8
*429 PHY_EDGE_ROW_9_Left_19
*430 PHY_EDGE_ROW_9_Right_9
*431 TAP_TAPCELL_ROW_0_20
*432 TAP_TAPCELL_ROW_0_21
*433 TAP_TAPCELL_ROW_0_22
*434 TAP_TAPCELL_ROW_0_23
*435 TAP_TAPCELL_ROW_0_24
*436 TAP_TAPCELL_ROW_0_25
*437 TAP_TAPCELL_ROW_0_26
*438 TAP_TAPCELL_ROW_0_27
*439 TAP_TAPCELL_ROW_0_28
*440 TAP_TAPCELL_ROW_0_29
*441 TAP_TAPCELL_ROW_1_30
*442 TAP_TAPCELL_ROW_1_31
*443 TAP_TAPCELL_ROW_1_32
*444 TAP_TAPCELL_ROW_1_33
*445 TAP_TAPCELL_ROW_1_34
*446 TAP_TAPCELL_ROW_2_35
*447 TAP_TAPCELL_ROW_2_36
*448 TAP_TAPCELL_ROW_2_37
*449 TAP_TAPCELL_ROW_2_38
*450 TAP_TAPCELL_ROW_2_39
*451 TAP_TAPCELL_ROW_3_40
*452 TAP_TAPCELL_ROW_3_41
*453 TAP_TAPCELL_ROW_3_42
*454 TAP_TAPCELL_ROW_3_43
*455 TAP_TAPCELL_ROW_3_44
*456 TAP_TAPCELL_ROW_4_45
*457 TAP_TAPCELL_ROW_4_46
*458 TAP_TAPCELL_ROW_4_47
*459 TAP_TAPCELL_ROW_4_48
*460 TAP_TAPCELL_ROW_4_49
*461 TAP_TAPCELL_ROW_5_50
*462 TAP_TAPCELL_ROW_5_51
*463 TAP_TAPCELL_ROW_5_52
*464 TAP_TAPCELL_ROW_5_53
*465 TAP_TAPCELL_ROW_5_54
*466 TAP_TAPCELL_ROW_6_55
*467 TAP_TAPCELL_ROW_6_56
*468 TAP_TAPCELL_ROW_6_57
*469 TAP_TAPCELL_ROW_6_58
*470 TAP_TAPCELL_ROW_6_59
*471 TAP_TAPCELL_ROW_7_60
*472 TAP_TAPCELL_ROW_7_61
*473 TAP_TAPCELL_ROW_7_62
*474 TAP_TAPCELL_ROW_7_63
*475 TAP_TAPCELL_ROW_7_64
*476 TAP_TAPCELL_ROW_8_65
*477 TAP_TAPCELL_ROW_8_66
*478 TAP_TAPCELL_ROW_8_67
*479 TAP_TAPCELL_ROW_8_68
*480 TAP_TAPCELL_ROW_8_69
*481 TAP_TAPCELL_ROW_9_70
*482 TAP_TAPCELL_ROW_9_71
*483 TAP_TAPCELL_ROW_9_72
*484 TAP_TAPCELL_ROW_9_73
*485 TAP_TAPCELL_ROW_9_74
*486 TAP_TAPCELL_ROW_9_75
*487 TAP_TAPCELL_ROW_9_76
*488 TAP_TAPCELL_ROW_9_77
*489 TAP_TAPCELL_ROW_9_78
*490 TAP_TAPCELL_ROW_9_79
*491 _072_
*492 _073_
*493 _074_
*494 _075_
*495 _076_
*496 _077_
*497 _078_
*498 _079_
*499 _080_
*500 _081_
*501 _082_
*502 _083__1
*503 _084_
*504 _085_
*505 _086_
*506 _087_
*507 _088_
*508 _089_
*509 _090_
*510 _091_
*511 _092_
*512 _093_
*513 _094_
*514 _095_
*515 _096_
*516 _097_
*517 _098_
*518 _099_
*519 _100_
*520 _101_
*521 _102_
*522 _103_
*523 _104_
*524 _105_
*525 _106_
*526 _107_
*527 _108_
*528 _109_
*529 _110_
*530 _111_
*531 _112_
*532 _113_
*533 _114_
*534 _115_
*535 _116_
*536 _117_
*537 _118_
*538 _119_
*539 _120_
*540 _121_
*541 _122_
*542 _123_
*543 _124_
*544 _125_
*545 _126_
*546 _127_
*547 _128_
*548 _129_
*549 _130_
*550 _131_
*551 _132_
*552 _133_
*553 _134_
*554 _135_
*555 _136_
*556 _137_
*557 _138_
*558 _139_
*559 _140_
*560 _141_
*561 _142_
*562 _143_
*563 _144_
*564 _145_
*565 _146_
*566 _147_
*567 _148_
*568 _149_
*569 _150_
*570 _151_
*571 _152_
*572 _153_
*573 _154_
*574 _155_
*575 _156_
*576 _157_
*577 _158_
*578 _159_
*579 _160_
*580 _161_
*581 _162_
*582 _163_
*583 _164_
*584 _165_
*585 _166_
*586 _167_
*587 _168_
*588 _169_
*589 _170_
*590 _171_
*591 _172_
*592 clkbuf_0_clk
*593 clkbuf_1_0__f_clk
*594 clkbuf_1_1__f_clk
*595 clkload0
*596 fanout28
*597 fanout30
*598 fanout31
*599 fanout32
*600 fanout33
*601 fanout34
*602 hold1
*603 hold2
*604 hold3
*605 hold4
*606 hold5
*607 hold6
*608 hold7
*609 hold8
*610 input1
*611 input2
*612 max_cap29
*613 output10
*614 output11
*615 output12
*616 output13
*617 output14
*618 output15
*619 output16
*620 output17
*621 output18
*622 output19
*623 output20
*624 output21
*625 output22
*626 output23
*627 output24
*628 output25
*629 output26
*630 output27
*631 output3
*632 output4
*633 output5
*634 output6
*635 output7
*636 output8
*637 output9

*PORTS
adc_out[0] O
adc_out[1] O
adc_out[2] O
adc_out[3] O
adc_out[4] O
adc_out[5] O
adc_out[6] O
adc_out[7] O
clk I
comp I
comparator_clk O
dac_in[0] O
dac_in[1] O
dac_in[2] O
dac_in[3] O
dac_in[4] O
dac_in[5] O
dac_in[6] O
dac_in[7] O
dac_in_n[0] O
dac_in_n[1] O
dac_in_n[2] O
dac_in_n[3] O
dac_in_n[4] O
dac_in_n[5] O
dac_in_n[6] O
dac_in_n[7] O
rst_n I

*D_NET *3 0.00150748
*CONN
*P adc_out[0] O
*I *631:X O *D sky130_fd_sc_hd__buf_2
*CAP
1 adc_out[0] 0.000753739
2 *631:X 0.000753739
3 adc_out[0] adc_out[1] 0
*RES
1 *631:X adc_out[0] 11.771 
*END

*D_NET *4 0.00122946
*CONN
*P adc_out[1] O
*I *632:X O *D sky130_fd_sc_hd__buf_2
*CAP
1 adc_out[1] 0.000614728
2 *632:X 0.000614728
3 adc_out[1] adc_out[2] 0
4 adc_out[0] adc_out[1] 0
*RES
1 *632:X adc_out[1] 6.89277 
*END

*D_NET *5 0.000579357
*CONN
*P adc_out[2] O
*I *633:X O *D sky130_fd_sc_hd__buf_2
*CAP
1 adc_out[2] 0.000283823
2 *633:X 0.000283823
3 *5:21 0
4 adc_out[2] adc_out[3] 0
5 adc_out[2] *631:A 1.17114e-05
6 adc_out[1] adc_out[2] 0
*RES
1 *633:X adc_out[2] 5.09883 
2 adc_out[2] *5:21 0.0393103 
*END

*D_NET *6 0.000591098
*CONN
*P adc_out[3] O
*I *634:X O *D sky130_fd_sc_hd__buf_2
*CAP
1 adc_out[3] 0.000295549
2 *634:X 0.000295549
3 adc_out[3] adc_out[4] 0
4 adc_out[2] adc_out[3] 0
*RES
1 *634:X adc_out[3] 5.09883 
*END

*D_NET *7 0.00058253
*CONN
*P adc_out[4] O
*I *635:X O *D sky130_fd_sc_hd__buf_2
*CAP
1 adc_out[4] 0.000291265
2 *635:X 0.000291265
3 adc_out[4] adc_out[5] 0
4 adc_out[3] adc_out[4] 0
*RES
1 *635:X adc_out[4] 5.09883 
*END

*D_NET *8 0.000586366
*CONN
*P adc_out[5] O
*I *636:X O *D sky130_fd_sc_hd__buf_2
*CAP
1 adc_out[5] 0.000293183
2 *636:X 0.000293183
3 adc_out[5] adc_out[6] 0
4 adc_out[5] *614:A 0
5 adc_out[4] adc_out[5] 0
*RES
1 *636:X adc_out[5] 5.09883 
*END

*D_NET *9 0.000890799
*CONN
*P adc_out[6] O
*I *637:X O *D sky130_fd_sc_hd__buf_2
*CAP
1 adc_out[6] 0.000358711
2 *637:X 0.000358711
3 adc_out[6] adc_out[7] 0.00014212
4 adc_out[6] *614:A 0
5 adc_out[6] *630:A 3.12569e-05
6 adc_out[5] adc_out[6] 0
*RES
1 *637:X adc_out[6] 5.8419 
*END

*D_NET *10 0.00146708
*CONN
*P adc_out[7] O
*I *613:X O *D sky130_fd_sc_hd__buf_2
*CAP
1 adc_out[7] 0.000580177
2 *613:X 0.000580177
3 adc_out[7] comparator_clk 0
4 adc_out[7] dac_in_n[7] 6.24871e-05
5 adc_out[7] *630:A 0.000102123
6 adc_out[6] adc_out[7] 0.00014212
*RES
1 *613:X adc_out[7] 9.79563 
*END

*D_NET *11 0.00872947
*CONN
*P clk I
*I *592:A I *D sky130_fd_sc_hd__clkbuf_16
*CAP
1 clk 0.00376771
2 *592:A 0.00376771
3 *592:A *525:C 0.000404054
4 *592:A *532:A_N 0.000153584
5 *592:A *552:A1 0.000116853
6 *592:A *601:A 4.40006e-05
7 *592:A *105:10 0.000297232
8 *592:A *135:8 8.45475e-05
9 *592:A *135:20 9.37731e-05
*RES
1 clk *592:A 26.5335 
*END

*D_NET *12 0.000697413
*CONN
*P comp I
*I *610:A I *D sky130_fd_sc_hd__buf_1
*CAP
1 comp 0.000348706
2 *610:A 0.000348706
*RES
1 comp *610:A 7.95697 
*END

*D_NET *13 0.00179594
*CONN
*P comparator_clk O
*I *614:X O *D sky130_fd_sc_hd__buf_2
*CAP
1 comparator_clk 0.000897972
2 *614:X 0.000897972
3 comparator_clk dac_in_n[6] 0
4 comparator_clk dac_in_n[7] 0
5 adc_out[7] comparator_clk 0
*RES
1 *614:X comparator_clk 10.635 
*END

*D_NET *14 0.00128517
*CONN
*P dac_in[0] O
*I *615:X O *D sky130_fd_sc_hd__buf_2
*CAP
1 dac_in[0] 0.000525579
2 *615:X 0.000525579
3 dac_in[0] *611:A 0.000234012
4 dac_in[0] *120:10 0
*RES
1 *615:X dac_in[0] 13.53 
*END

*D_NET *15 0.00103374
*CONN
*P dac_in[1] O
*I *616:X O *D sky130_fd_sc_hd__buf_2
*CAP
1 dac_in[1] 0.000516872
2 *616:X 0.000516872
*RES
1 *616:X dac_in[1] 12.735 
*END

*D_NET *16 0.00128808
*CONN
*P dac_in[2] O
*I *617:X O *D sky130_fd_sc_hd__buf_2
*CAP
1 dac_in[2] 0.000581806
2 *617:X 0.000581806
3 dac_in[2] *113:25 0.000124471
*RES
1 *617:X dac_in[2] 13.53 
*END

*D_NET *17 0.00103374
*CONN
*P dac_in[3] O
*I *618:X O *D sky130_fd_sc_hd__buf_2
*CAP
1 dac_in[3] 0.000516872
2 *618:X 0.000516872
*RES
1 *618:X dac_in[3] 12.735 
*END

*D_NET *18 0.00103374
*CONN
*P dac_in[4] O
*I *619:X O *D sky130_fd_sc_hd__buf_2
*CAP
1 dac_in[4] 0.000516872
2 *619:X 0.000516872
*RES
1 *619:X dac_in[4] 12.735 
*END

*D_NET *19 0.00103374
*CONN
*P dac_in[5] O
*I *620:X O *D sky130_fd_sc_hd__buf_2
*CAP
1 dac_in[5] 0.000516872
2 *620:X 0.000516872
*RES
1 *620:X dac_in[5] 12.735 
*END

*D_NET *20 0.00103374
*CONN
*P dac_in[6] O
*I *621:X O *D sky130_fd_sc_hd__buf_2
*CAP
1 dac_in[6] 0.000516872
2 *621:X 0.000516872
*RES
1 *621:X dac_in[6] 12.735 
*END

*D_NET *21 0.00125013
*CONN
*P dac_in[7] O
*I *622:X O *D sky130_fd_sc_hd__buf_2
*CAP
1 dac_in[7] 0.000550079
2 *622:X 0.000550079
3 dac_in[7] *622:A 4.31921e-05
4 dac_in[7] *116:29 0.000106784
5 dac_in[7] *120:20 0
*RES
1 *622:X dac_in[7] 14.01 
*END

*D_NET *22 0.00107172
*CONN
*P dac_in_n[0] O
*I *623:X O *D sky130_fd_sc_hd__buf_2
*CAP
1 dac_in_n[0] 0.000535862
2 *623:X 0.000535862
*RES
1 *623:X dac_in_n[0] 13.08 
*END

*D_NET *23 0.00107172
*CONN
*P dac_in_n[1] O
*I *624:X O *D sky130_fd_sc_hd__buf_2
*CAP
1 dac_in_n[1] 0.000535862
2 *624:X 0.000535862
*RES
1 *624:X dac_in_n[1] 13.08 
*END

*D_NET *24 0.00138497
*CONN
*P dac_in_n[2] O
*I *625:X O *D sky130_fd_sc_hd__buf_2
*CAP
1 dac_in_n[2] 0.000657271
2 *625:X 0.000657271
3 dac_in_n[2] *626:A 2.75229e-05
4 dac_in_n[2] *118:36 4.29016e-05
*RES
1 *625:X dac_in_n[2] 14.565 
*END

*D_NET *25 0.00115948
*CONN
*P dac_in_n[3] O
*I *626:X O *D sky130_fd_sc_hd__buf_2
*CAP
1 dac_in_n[3] 0.000560052
2 *626:X 0.000560052
3 dac_in_n[3] *626:A 7.00889e-06
4 dac_in_n[3] *118:36 3.23663e-05
*RES
1 *626:X dac_in_n[3] 13.185 
*END

*D_NET *26 0.00106583
*CONN
*P dac_in_n[4] O
*I *627:X O *D sky130_fd_sc_hd__buf_2
*CAP
1 dac_in_n[4] 0.000532916
2 *627:X 0.000532916
3 dac_in_n[4] *116:29 0
*RES
1 *627:X dac_in_n[4] 13.08 
*END

*D_NET *27 0.00181871
*CONN
*P dac_in_n[5] O
*I *628:X O *D sky130_fd_sc_hd__buf_2
*CAP
1 dac_in_n[5] 0.0008253
2 *628:X 0.0008253
3 dac_in_n[5] *494:A 7.81829e-05
4 dac_in_n[5] *518:A 7.00889e-06
5 dac_in_n[5] *606:A 3.23663e-05
6 dac_in_n[5] *628:A 5.05521e-05
*RES
1 *628:X dac_in_n[5] 16.98 
*END

*D_NET *28 0.0010626
*CONN
*P dac_in_n[6] O
*I *629:X O *D sky130_fd_sc_hd__buf_2
*CAP
1 dac_in_n[6] 0.000531302
2 *629:X 0.000531302
3 comparator_clk dac_in_n[6] 0
*RES
1 *629:X dac_in_n[6] 13.08 
*END

*D_NET *29 0.00103075
*CONN
*P dac_in_n[7] O
*I *630:X O *D sky130_fd_sc_hd__buf_2
*CAP
1 dac_in_n[7] 0.00048413
2 *630:X 0.00048413
3 adc_out[7] dac_in_n[7] 6.24871e-05
4 comparator_clk dac_in_n[7] 0
*RES
1 *630:X dac_in_n[7] 12.39 
*END

*D_NET *30 0.00125511
*CONN
*P rst_n I
*I *611:A I *D sky130_fd_sc_hd__buf_1
*CAP
1 rst_n 0.000490761
2 *611:A 0.000490761
3 *611:A *615:A 3.95724e-05
4 dac_in[0] *611:A 0.000234012
*RES
1 rst_n *611:A 11.1635 
*END

*D_NET *31 0.00034095
*CONN
*I *571:D I *D sky130_fd_sc_hd__dfxtp_1
*I *503:X O *D sky130_fd_sc_hd__and2b_1
*CAP
1 *571:D 9.66083e-05
2 *503:X 9.66083e-05
3 *571:D *503:A_N 0.000147734
*RES
1 *503:X *571:D 4.92875 
*END

*D_NET *32 0.00054863
*CONN
*I *572:D I *D sky130_fd_sc_hd__dfxtp_1
*I *507:X O *D sky130_fd_sc_hd__o211a_1
*CAP
1 *572:D 0.000196326
2 *507:X 0.000196326
3 *572:D *507:B1 0
4 *572:D *508:B 0
5 *572:D *575:CLK 0
6 *572:D *575:D 0.000141606
7 *572:D *80:81 0
8 *572:D *104:56 1.43717e-05
*RES
1 *507:X *572:D 10.7587 
*END

*D_NET *33 0.00021668
*CONN
*I *573:D I *D sky130_fd_sc_hd__dfxtp_1
*I *509:X O *D sky130_fd_sc_hd__o211a_1
*CAP
1 *573:D 8.7803e-05
2 *509:X 8.7803e-05
3 *573:D *509:B1 0
4 *573:D *104:10 0
5 *573:D *104:12 1.43717e-05
6 *573:D *113:10 2.67022e-05
*RES
1 *509:X *573:D 8.71875 
*END

*D_NET *34 0.000321123
*CONN
*I *574:D I *D sky130_fd_sc_hd__dfxtp_1
*I *511:X O *D sky130_fd_sc_hd__o211a_1
*CAP
1 *574:D 0.000108605
2 *511:X 0.000108605
3 *574:D *631:A 6.50844e-06
4 *574:D *104:60 4.91189e-05
5 *574:D *130:21 4.82863e-05
*RES
1 *511:X *574:D 9.16875 
*END

*D_NET *35 0.000308255
*CONN
*I *575:D I *D sky130_fd_sc_hd__dfxtp_1
*I *513:X O *D sky130_fd_sc_hd__o211a_1
*CAP
1 *575:D 7.35286e-05
2 *513:X 7.35286e-05
3 *575:D *575:CLK 4.18603e-06
4 *575:D *79:14 0
5 *575:D *80:39 0
6 *575:D *130:8 1.54049e-05
7 *572:D *575:D 0.000141606
*RES
1 *513:X *575:D 8.97375 
*END

*D_NET *36 0.000329827
*CONN
*I *576:D I *D sky130_fd_sc_hd__dfxtp_1
*I *515:X O *D sky130_fd_sc_hd__o211a_1
*CAP
1 *576:D 0.00013115
2 *515:X 0.00013115
3 *576:D *80:107 4.05674e-06
4 *576:D *104:60 4.18603e-06
5 *576:D *104:69 5.92849e-05
6 *576:D *130:36 0
*RES
1 *515:X *576:D 9.42375 
*END

*D_NET *37 0.000275413
*CONN
*I *577:D I *D sky130_fd_sc_hd__dfxtp_1
*I *517:X O *D sky130_fd_sc_hd__o211a_1
*CAP
1 *577:D 4.38424e-05
2 *517:X 4.38424e-05
3 *577:D *516:A 9.90763e-06
4 *577:D *577:CLK 2.75229e-05
5 *577:D *630:A 0.000150298
*RES
1 *517:X *577:D 4.56875 
*END

*D_NET *38 0.000498795
*CONN
*I *578:D I *D sky130_fd_sc_hd__dfxtp_1
*I *519:X O *D sky130_fd_sc_hd__o211a_1
*CAP
1 *578:D 0.000113436
2 *519:X 0.000113436
3 *578:D *518:B 0.000141606
4 *578:D *519:A2 0
5 *578:D *613:A 0.000130317
*RES
1 *519:X *578:D 10.0087 
*END

*D_NET *39 0.000396516
*CONN
*I *604:A I *D sky130_fd_sc_hd__dlygate4sd3_1
*I *521:X O *D sky130_fd_sc_hd__o211a_1
*CAP
1 *604:A 0.000144006
2 *521:X 0.000144006
3 *604:A *579:CLK 4.82919e-05
4 *604:A *117:45 6.02123e-05
*RES
1 *521:X *604:A 9.375 
*END

*D_NET *40 0.000525298
*CONN
*I *580:D I *D sky130_fd_sc_hd__dfxtp_1
*I *534:X O *D sky130_fd_sc_hd__o21a_1
*CAP
1 *580:D 6.05315e-05
2 *534:X 6.05315e-05
3 *580:D *109:12 0.000101614
4 *580:D *112:25 0.00030262
*RES
1 *534:X *580:D 5.94875 
*END

*D_NET *41 0.00127793
*CONN
*I *581:D I *D sky130_fd_sc_hd__dfxtp_1
*I *539:Y O *D sky130_fd_sc_hd__a31oi_1
*CAP
1 *581:D 0.000540811
2 *539:Y 0.000540811
3 *581:D *581:CLK 7.82691e-05
4 *581:D *79:10 0.000118036
5 *581:D *90:10 0
*RES
1 *539:Y *581:D 14.55 
*END

*D_NET *42 0.00151952
*CONN
*I *582:D I *D sky130_fd_sc_hd__dfxtp_1
*I *544:X O *D sky130_fd_sc_hd__o31a_1
*CAP
1 *582:D 0.000555578
2 *544:X 0.000555578
3 *582:D *544:A2 0
4 *582:D *544:A3 7.4027e-05
5 *582:D *114:35 0.000334339
*RES
1 *544:X *582:D 18.15 
*END

*D_NET *43 0.00576217
*CONN
*I *583:D I *D sky130_fd_sc_hd__dfxtp_1
*I *548:X O *D sky130_fd_sc_hd__o21a_1
*CAP
1 *583:D 0.00157752
2 *548:X 0.00157752
3 *583:D *562:B1 0
4 *583:D *583:CLK 0.000113663
5 *583:D *586:CLK 0.000639577
6 *583:D *586:D 5.20335e-05
7 *583:D *587:CLK 2.16917e-05
8 *583:D *587:D 1.43717e-05
9 *583:D *620:A 1.48694e-05
10 *583:D *56:40 0.000312182
11 *583:D *60:42 6.28765e-05
12 *583:D *89:83 3.09164e-05
13 *583:D *115:10 0.000150292
14 *583:D *115:52 0.00119465
*RES
1 *548:X *583:D 34.4588 
*END

*D_NET *44 0.0018992
*CONN
*I *584:D I *D sky130_fd_sc_hd__dfxtp_1
*I *552:Y O *D sky130_fd_sc_hd__a31oi_1
*CAP
1 *584:D 0.000783121
2 *552:Y 0.000783121
3 *584:D *594:A 0.000236355
4 *584:D *104:96 9.66021e-05
*RES
1 *552:Y *584:D 13.6587 
*END

*D_NET *45 0.00105232
*CONN
*I *585:D I *D sky130_fd_sc_hd__dfxtp_1
*I *556:Y O *D sky130_fd_sc_hd__a31oi_1
*CAP
1 *585:D 0.000145904
2 *556:Y 0.000145904
3 *585:D *493:A 9.21865e-05
4 *585:D *521:A1 0.000151967
5 *585:D *535:B1 4.94404e-05
6 *585:D *561:B1 0.000235573
7 *585:D *585:CLK 0.000113663
8 *585:D *620:A 8.76599e-05
9 *585:D *99:30 9.50342e-06
10 *585:D *119:23 2.0514e-05
*RES
1 *556:Y *585:D 12.4537 
*END

*D_NET *46 0.000286491
*CONN
*I *586:D I *D sky130_fd_sc_hd__dfxtp_1
*I *560:X O *D sky130_fd_sc_hd__o31a_1
*CAP
1 *586:D 7.42587e-05
2 *560:X 7.42587e-05
3 *586:D *586:CLK 5.20335e-05
4 *586:D *115:52 3.39064e-05
5 *583:D *586:D 5.20335e-05
*RES
1 *560:X *586:D 8.80875 
*END

*D_NET *47 0.000243969
*CONN
*I *587:D I *D sky130_fd_sc_hd__dfxtp_1
*I *562:X O *D sky130_fd_sc_hd__a211o_1
*CAP
1 *587:D 6.65067e-05
2 *562:X 6.65067e-05
3 *587:D *620:A 3.51254e-06
4 *587:D *56:40 9.30717e-05
5 *583:D *587:D 1.43717e-05
*RES
1 *562:X *587:D 8.46375 
*END

*D_NET *48 0.000328418
*CONN
*I *588:D I *D sky130_fd_sc_hd__dfxtp_1
*I *564:X O *D sky130_fd_sc_hd__and3_1
*CAP
1 *588:D 7.99919e-05
2 *564:X 7.99919e-05
3 *588:D *588:CLK 9.47454e-05
4 *588:D *129:22 7.36892e-05
*RES
1 *564:X *588:D 9.00375 
*END

*D_NET *49 0.000450792
*CONN
*I *589:D I *D sky130_fd_sc_hd__dfxtp_1
*I *566:X O *D sky130_fd_sc_hd__and3_1
*CAP
1 *589:D 7.1889e-05
2 *566:X 7.1889e-05
3 *589:D *567:B 2.94787e-05
4 *589:D *89:22 0.000156375
5 *589:D *93:14 1.17309e-05
6 *589:D *103:18 0.00010943
*RES
1 *566:X *589:D 5.43875 
*END

*D_NET *50 0.000498457
*CONN
*I *590:D I *D sky130_fd_sc_hd__dfxtp_2
*I *568:X O *D sky130_fd_sc_hd__and3_1
*CAP
1 *590:D 0.000135794
2 *568:X 0.000135794
3 *590:D *597:A 3.86607e-05
4 *590:D *89:42 4.82919e-05
5 *590:D *103:26 7.82691e-05
6 *590:D *108:18 6.16467e-05
7 *590:D *129:40 0
*RES
1 *568:X *590:D 9.75 
*END

*D_NET *51 0.00144086
*CONN
*I *591:D I *D sky130_fd_sc_hd__dfxtp_1
*I *570:Y O *D sky130_fd_sc_hd__a21oi_1
*CAP
1 *591:D 0.000337649
2 *570:Y 0.000337649
3 *591:D *530:A2 0
4 *591:D *570:A1 3.86607e-05
5 *591:D *597:A 8.5242e-05
6 *591:D *89:42 8.0005e-05
7 *591:D *103:28 0.000511683
8 *591:D *108:18 4.9968e-05
*RES
1 *570:Y *591:D 15.2437 
*END

*D_NET *52 0.00136514
*CONN
*I *559:B1 I *D sky130_fd_sc_hd__o211a_1
*I *543:C I *D sky130_fd_sc_hd__and4bb_1
*I *536:X O *D sky130_fd_sc_hd__and4bb_1
*CAP
1 *559:B1 0.000184496
2 *543:C 0.000161435
3 *536:X 0
4 *52:4 0.000345932
5 *543:C *543:B_N 0.000122337
6 *543:C *543:D 4.65515e-05
7 *559:B1 *536:A_N 9.02174e-05
8 *559:B1 *543:B_N 0.000337929
9 *559:B1 *559:A2 7.62426e-05
*RES
1 *536:X *52:4 1.6 
2 *52:4 *543:C 4.465 
3 *52:4 *559:B1 6.205 
*END

*D_NET *53 0.00148465
*CONN
*I *539:A2 I *D sky130_fd_sc_hd__a31oi_1
*I *537:X O *D sky130_fd_sc_hd__or4_1
*CAP
1 *539:A2 0.00049141
2 *537:X 0.00049141
3 *539:A2 *504:B 1.33293e-05
4 *539:A2 *504:D_N 8.65961e-05
5 *539:A2 *539:A3 3.00381e-05
6 *539:A2 *79:10 0.000327653
7 *539:A2 *105:14 3.38853e-05
8 *539:A2 *107:81 1.03323e-05
*RES
1 *537:X *539:A2 10.94 
*END

*D_NET *54 0.00035041
*CONN
*I *539:A3 I *D sky130_fd_sc_hd__a31oi_1
*I *538:Y O *D sky130_fd_sc_hd__nand3_1
*CAP
1 *539:A3 7.99702e-05
2 *538:Y 7.99702e-05
3 *539:A3 *500:A 0.000113821
4 *539:A3 *79:10 4.66108e-05
5 *539:A3 *134:27 0
6 *539:A2 *539:A3 3.00381e-05
*RES
1 *538:Y *539:A3 9.03 
*END

*D_NET *55 0.00121726
*CONN
*I *544:A1 I *D sky130_fd_sc_hd__o31a_1
*I *540:X O *D sky130_fd_sc_hd__o41a_1
*CAP
1 *544:A1 0.000404348
2 *540:X 0.000404348
3 *544:A1 *533:A2 8.65905e-05
4 *544:A1 *533:B1 0.000124895
5 *544:A1 *533:C1 6.90876e-05
6 *544:A1 *544:A2 1.90662e-05
7 *544:A1 *544:A3 9.15968e-05
8 *544:A1 *544:B1 3.58803e-06
9 *544:A1 *109:12 1.3739e-05
*RES
1 *540:X *544:A1 13.665 
*END

*D_NET *56 0.00614127
*CONN
*I *561:A1 I *D sky130_fd_sc_hd__a21oi_1
*I *545:A2 I *D sky130_fd_sc_hd__a21oi_1
*I *547:A3 I *D sky130_fd_sc_hd__a32o_1
*I *558:A I *D sky130_fd_sc_hd__and2_1
*I *542:B I *D sky130_fd_sc_hd__and2_1
*I *541:Y O *D sky130_fd_sc_hd__nor3b_2
*CAP
1 *561:A1 0
2 *545:A2 0.000328465
3 *547:A3 2.37857e-05
4 *558:A 0
5 *542:B 0.000138627
6 *541:Y 0
7 *56:44 0.000438909
8 *56:40 0.000421039
9 *56:25 0.000956783
10 *56:4 0.000761029
11 *542:B *542:A 9.52646e-05
12 *542:B *114:35 3.23663e-05
13 *545:A2 *545:A1 2.98807e-05
14 *545:A2 *547:B2 8.7152e-06
15 *545:A2 *551:A1 6.32198e-05
16 *545:A2 *556:A2 4.84095e-05
17 *545:A2 *94:31 1.75825e-05
18 *545:A2 *120:20 0
19 *547:A3 *547:A2 4.82919e-05
20 *547:A3 *548:A1 4.92062e-05
21 *547:A3 *78:53 1.91597e-05
22 *56:25 *531:A_N 6.97118e-05
23 *56:25 *541:A 0.00012657
24 *56:25 *541:B 8.65905e-05
25 *56:25 *542:A 4.35348e-05
26 *56:25 *557:B1 7.06865e-05
27 *56:25 *560:A1 8.65905e-05
28 *56:25 *560:A2 0.000137014
29 *56:25 *560:A3 1.34594e-05
30 *56:25 *560:B1 0.000201503
31 *56:25 *562:A2 0.000137903
32 *56:25 *78:40 0.000274659
33 *56:25 *114:35 1.96098e-05
34 *56:25 *133:91 2.97473e-05
35 *56:40 *562:A2 0.000313852
36 *56:40 *562:B1 0.000185633
37 *56:40 *620:A 4.87317e-05
38 *56:40 *60:42 0.0001249
39 *56:40 *60:49 3.66286e-05
40 *56:40 *78:40 0.000180373
41 *56:40 *103:106 0
42 *56:44 *547:A2 2.85364e-05
43 *56:44 *60:42 0
44 *56:44 *120:20 3.90531e-05
45 *583:D *56:40 0.000312182
46 *587:D *56:40 9.30717e-05
*RES
1 *541:Y *56:4 1.6 
2 *56:4 *542:B 4.135 
3 *56:4 *56:25 16.825 
4 *56:25 *558:A 1.6 
5 *56:25 *56:40 13.69 
6 *56:40 *56:44 3.635 
7 *56:44 *547:A3 4.395 
8 *56:44 *545:A2 6.03413 
9 *56:40 *561:A1 1.6 
*END

*D_NET *57 0.000866617
*CONN
*I *544:A2 I *D sky130_fd_sc_hd__o31a_1
*I *542:X O *D sky130_fd_sc_hd__and2_1
*CAP
1 *544:A2 0.000212697
2 *542:X 0.000212697
3 *544:A2 *541:C_N 0
4 *544:A2 *543:A_N 3.686e-05
5 *544:A2 *543:D 0.000157707
6 *544:A2 *544:A3 4.99619e-05
7 *544:A2 *544:B1 5.10587e-05
8 *544:A2 *109:12 0.00012657
9 *544:A1 *544:A2 1.90662e-05
10 *582:D *544:A2 0
*RES
1 *542:X *544:A2 12.27 
*END

*D_NET *58 0.000490638
*CONN
*I *544:A3 I *D sky130_fd_sc_hd__o31a_1
*I *543:X O *D sky130_fd_sc_hd__and4bb_1
*CAP
1 *544:A3 0.000106042
2 *543:X 0.000106042
3 *544:A3 *534:B1 4.82863e-05
4 *544:A3 *544:B1 0
5 *544:A3 *109:12 1.46828e-05
6 *544:A3 *112:25 0
7 *544:A1 *544:A3 9.15968e-05
8 *544:A2 *544:A3 4.99619e-05
9 *582:D *544:A3 7.4027e-05
*RES
1 *543:X *544:A3 9.975 
*END

*D_NET *59 0.000862968
*CONN
*I *548:A1 I *D sky130_fd_sc_hd__o21a_1
*I *545:Y O *D sky130_fd_sc_hd__a21oi_1
*CAP
1 *548:A1 0.000160742
2 *545:Y 0.000160742
3 *548:A1 *545:B1 7.00889e-06
4 *548:A1 *547:A2 1.34503e-05
5 *548:A1 *547:B1 9.4988e-06
6 *548:A1 *548:A2 4.99619e-05
7 *548:A1 *78:53 3.04857e-05
8 *548:A1 *78:68 7.22537e-05
9 *548:A1 *94:37 0.000309618
10 *547:A3 *548:A1 4.92062e-05
*RES
1 *545:Y *548:A1 7.805 
*END

*D_NET *60 0.00932979
*CONN
*I *547:B1 I *D sky130_fd_sc_hd__a32o_1
*I *551:A2 I *D sky130_fd_sc_hd__a21o_1
*I *553:A2 I *D sky130_fd_sc_hd__a21o_1
*I *550:B I *D sky130_fd_sc_hd__nand2_1
*I *555:C I *D sky130_fd_sc_hd__nand3_1
*I *561:A2 I *D sky130_fd_sc_hd__a21oi_1
*I *558:B I *D sky130_fd_sc_hd__and2_1
*I *549:C_N I *D sky130_fd_sc_hd__or3b_1
*I *546:Y O *D sky130_fd_sc_hd__nor2_2
*CAP
1 *547:B1 0.000107508
2 *551:A2 9.71884e-06
3 *553:A2 0
4 *550:B 0.000359351
5 *555:C 0
6 *561:A2 0
7 *558:B 0.000250591
8 *549:C_N 0.000298927
9 *546:Y 0
10 *60:87 9.71884e-06
11 *60:74 0.00077374
12 *60:57 0.000612954
13 *60:49 0.000371991
14 *60:42 0.000453212
15 *60:8 0.00111747
16 *60:4 0.000955248
17 *547:B1 *500:A 0
18 *547:B1 *547:A1 2.95708e-05
19 *547:B1 *78:68 2.09749e-05
20 *547:B1 *120:20 5.65627e-05
21 *549:C_N *549:A 0.000121437
22 *549:C_N *557:A1 0
23 *549:C_N *557:A3 0
24 *549:C_N *114:62 6.6564e-05
25 *550:B *551:A1 1.71416e-05
26 *550:B *552:A2 5.30144e-05
27 *550:B *552:A3 0.000151771
28 *550:B *553:B1 2.04262e-05
29 *550:B *596:A 4.99619e-05
30 *550:B *99:19 0
31 *550:B *113:23 0
32 *550:B *114:62 2.75229e-05
33 *551:A2 *493:A 4.82919e-05
34 *551:A2 *561:B1 4.82919e-05
35 *558:B *557:A1 0
36 *558:B *557:A3 0
37 *558:B *557:B1 5.99757e-05
38 *558:B *560:B1 2.75229e-05
39 *558:B *562:A2 4.82919e-05
40 *558:B *78:40 0
41 *558:B *103:106 0
42 *60:8 *593:A 8.57024e-05
43 *60:8 *91:36 0.000649222
44 *60:8 *132:77 5.68717e-05
45 *60:42 *547:A2 0
46 *60:42 *554:A 0.000112123
47 *60:42 *562:B1 0.0001249
48 *60:42 *89:83 6.16995e-05
49 *60:42 *94:31 0
50 *60:42 *120:20 0
51 *60:49 *561:B1 6.38806e-05
52 *60:49 *562:B1 9.61767e-05
53 *60:49 *119:23 8.09761e-05
54 *60:57 *500:A 0.000124895
55 *60:57 *535:B1 6.72556e-05
56 *60:57 *556:A3 1.89685e-05
57 *60:57 *561:B1 0.000584316
58 *60:57 *119:23 0.000231885
59 *60:74 *551:A1 0.000569264
60 *548:A1 *547:B1 9.4988e-06
61 *583:D *60:42 6.28765e-05
62 *56:40 *60:42 0.0001249
63 *56:40 *60:49 3.66286e-05
64 *56:44 *60:42 0
*RES
1 *546:Y *60:4 1.6 
2 *60:4 *60:8 9.695 
3 *60:8 *549:C_N 8.685 
4 *60:8 *558:B 7.725 
5 *60:4 *60:42 11.155 
6 *60:42 *561:A2 1.6 
7 *60:42 *60:49 2.175 
8 *60:49 *60:57 9.275 
9 *60:57 *555:C 3.6 
10 *60:57 *60:74 2.08623 
11 *60:74 *550:B 10.53 
12 *60:74 *60:87 2 
13 *60:87 *553:A2 1.6 
14 *60:87 *551:A2 2.05 
15 *60:49 *547:B1 7.4375 
*END

*D_NET *61 0.000174691
*CONN
*I *548:A2 I *D sky130_fd_sc_hd__o21a_1
*I *547:X O *D sky130_fd_sc_hd__a32o_1
*CAP
1 *548:A2 5.98337e-05
2 *547:X 5.98337e-05
3 *548:A2 *78:53 5.062e-06
4 *548:A1 *548:A2 4.99619e-05
*RES
1 *547:X *548:A2 3.995 
*END

*D_NET *62 0.00452762
*CONN
*I *552:A1 I *D sky130_fd_sc_hd__a31oi_1
*I *549:X O *D sky130_fd_sc_hd__or3b_1
*CAP
1 *552:A1 0.00123326
2 *549:X 0.00123326
3 *552:A1 *552:B1 3.83041e-05
4 *552:A1 *593:A 0.000291487
5 *552:A1 *594:A 4.60584e-05
6 *552:A1 *601:A 0.00011852
7 *552:A1 *90:59 0.000313857
8 *552:A1 *114:62 0.00113602
9 *592:A *552:A1 0.000116853
*RES
1 *549:X *552:A1 27.765 
*END

*D_NET *63 0.000521752
*CONN
*I *552:A2 I *D sky130_fd_sc_hd__a31oi_1
*I *550:Y O *D sky130_fd_sc_hd__nand2_1
*CAP
1 *552:A2 0.00016717
2 *550:Y 0.00016717
3 *552:A2 *552:A3 9.50342e-06
4 *552:A2 *99:19 0
5 *552:A2 *114:62 0.000124895
6 *550:B *552:A2 5.30144e-05
*RES
1 *550:Y *552:A2 9.975 
*END

*D_NET *64 0.00121771
*CONN
*I *552:A3 I *D sky130_fd_sc_hd__a31oi_1
*I *551:X O *D sky130_fd_sc_hd__a21o_1
*CAP
1 *552:A3 0.000366732
2 *551:X 0.000366732
3 *552:A3 *553:B1 7.23602e-05
4 *552:A3 *556:B1 0
5 *552:A3 *561:B1 0.000250615
6 *550:B *552:A3 0.000151771
7 *552:A2 *552:A3 9.50342e-06
*RES
1 *551:X *552:A3 13.485 
*END

*D_NET *65 0.000412348
*CONN
*I *556:A1 I *D sky130_fd_sc_hd__a31oi_1
*I *553:X O *D sky130_fd_sc_hd__a21o_1
*CAP
1 *556:A1 0.000110546
2 *553:X 0.000110546
3 *556:A1 *493:A 4.47209e-05
4 *556:A1 *555:B 1.33285e-05
5 *556:A1 *556:A2 4.82863e-05
6 *556:A1 *556:B1 8.49205e-05
*RES
1 *553:X *556:A1 5.375 
*END

*D_NET *66 0.0019422
*CONN
*I *556:A2 I *D sky130_fd_sc_hd__a31oi_1
*I *554:X O *D sky130_fd_sc_hd__or4_1
*CAP
1 *556:A2 0.000515718
2 *554:X 0.000515718
3 *556:A2 *535:B1 6.34884e-05
4 *556:A2 *551:A1 0.000388993
5 *556:A2 *555:B 8.49205e-05
6 *556:A2 *92:12 6.15576e-06
7 *556:A2 *99:30 0.000121551
8 *556:A2 *115:52 0.000128398
9 *556:A2 *120:20 2.05571e-05
10 *545:A2 *556:A2 4.84095e-05
11 *556:A1 *556:A2 4.82863e-05
*RES
1 *554:X *556:A2 11.9383 
*END

*D_NET *67 0.000589464
*CONN
*I *556:A3 I *D sky130_fd_sc_hd__a31oi_1
*I *555:Y O *D sky130_fd_sc_hd__nand3_1
*CAP
1 *556:A3 0.000178254
2 *555:Y 0.000178254
3 *556:A3 *500:A 3.39052e-05
4 *556:A3 *535:B1 0
5 *556:A3 *545:B1 8.27336e-05
6 *556:A3 *555:B 9.73493e-05
7 *556:A3 *78:68 0
8 *60:57 *556:A3 1.89685e-05
*RES
1 *555:Y *556:A3 10.38 
*END

*D_NET *68 0.000450821
*CONN
*I *560:A1 I *D sky130_fd_sc_hd__o31a_1
*I *557:X O *D sky130_fd_sc_hd__o41a_1
*CAP
1 *560:A1 9.2052e-05
2 *557:X 9.2052e-05
3 *560:A1 *531:A_N 0
4 *560:A1 *557:B1 0
5 *560:A1 *560:A2 4.82863e-05
6 *560:A1 *560:A3 5.78129e-05
7 *560:A1 *78:40 7.4027e-05
8 *560:A1 *115:52 0
9 *56:25 *560:A1 8.65905e-05
*RES
1 *557:X *560:A1 9.63 
*END

*D_NET *69 0.00183792
*CONN
*I *562:A2 I *D sky130_fd_sc_hd__a211o_1
*I *560:A2 I *D sky130_fd_sc_hd__o31a_1
*I *558:X O *D sky130_fd_sc_hd__and2_1
*CAP
1 *562:A2 0.000108065
2 *560:A2 8.05866e-05
3 *558:X 0
4 *69:4 0.000188652
5 *560:A2 *560:A3 4.82863e-05
6 *560:A2 *560:B1 0.000290837
7 *560:A2 *78:40 0.000112631
8 *562:A2 *560:B1 0.000307333
9 *562:A2 *78:40 1.61831e-05
10 *558:B *562:A2 4.82919e-05
11 *560:A1 *560:A2 4.82863e-05
12 *56:25 *560:A2 0.000137014
13 *56:25 *562:A2 0.000137903
14 *56:40 *562:A2 0.000313852
*RES
1 *558:X *69:4 1.6 
2 *69:4 *560:A2 5.155 
3 *69:4 *562:A2 6.655 
*END

*D_NET *70 0.000628484
*CONN
*I *560:A3 I *D sky130_fd_sc_hd__o31a_1
*I *559:X O *D sky130_fd_sc_hd__o211a_1
*CAP
1 *560:A3 0.000163891
2 *559:X 0.000163891
3 *560:A3 *531:A_N 9.54399e-05
4 *560:A3 *107:53 8.57024e-05
5 *560:A1 *560:A3 5.78129e-05
6 *560:A2 *560:A3 4.82863e-05
7 *56:25 *560:A3 1.34594e-05
*RES
1 *559:X *560:A3 10.26 
*END

*D_NET *71 0.00117312
*CONN
*I *562:B1 I *D sky130_fd_sc_hd__a211o_1
*I *561:Y O *D sky130_fd_sc_hd__a21oi_1
*CAP
1 *562:B1 0.000219049
2 *561:Y 0.000219049
3 *562:B1 *562:C1 9.50342e-06
4 *562:B1 *620:A 0.000137943
5 *562:B1 *89:83 8.08153e-06
6 *562:B1 *119:23 0.000172785
7 *583:D *562:B1 0
8 *56:40 *562:B1 0.000185633
9 *60:42 *562:B1 0.0001249
10 *60:49 *562:B1 9.61767e-05
*RES
1 *561:Y *562:B1 13.5262 
*END

*D_NET *72 0.000297452
*CONN
*I *564:C I *D sky130_fd_sc_hd__and3_1
*I *563:X O *D sky130_fd_sc_hd__or2_1
*CAP
1 *564:C 8.21103e-05
2 *563:X 8.21103e-05
3 *564:C *89:12 8.32699e-05
4 *564:C *89:22 4.99619e-05
*RES
1 *563:X *564:C 4.4 
*END

*D_NET *73 0.000542295
*CONN
*I *566:C I *D sky130_fd_sc_hd__and3_1
*I *565:X O *D sky130_fd_sc_hd__a21o_1
*CAP
1 *566:C 0.000176336
2 *565:X 0.000176336
3 *566:C *528:C 2.30292e-05
4 *566:C *89:22 1.70906e-05
5 *566:C *103:26 0.000149504
*RES
1 *565:X *566:C 9.72 
*END

*D_NET *74 0.0013355
*CONN
*I *568:C I *D sky130_fd_sc_hd__and3_1
*I *567:Y O *D sky130_fd_sc_hd__nand2_1
*CAP
1 *568:C 0.00032368
2 *567:Y 0.00032368
3 *568:C *528:D 0.000162311
4 *568:C *89:36 0.000344314
5 *568:C *89:42 9.49276e-05
6 *568:C *129:40 3.66286e-05
7 *568:C *129:46 4.99619e-05
*RES
1 *567:Y *568:C 9.695 
*END

*D_NET *75 0.000730696
*CONN
*I *570:A2 I *D sky130_fd_sc_hd__a21oi_1
*I *569:Y O *D sky130_fd_sc_hd__nand2_1
*CAP
1 *570:A2 0.000236972
2 *569:Y 0.000236972
3 *570:A2 *530:A1 4.99619e-05
4 *570:A2 *530:A2 7.23602e-05
5 *570:A2 *569:B 5.30673e-05
6 *570:A2 *570:A1 0
7 *570:A2 *95:12 3.00381e-05
8 *570:A2 *112:25 9.50342e-06
9 *570:A2 *112:31 4.18203e-05
*RES
1 *569:Y *570:A2 11.115 
*END

*D_NET *76 0.00518785
*CONN
*I *537:B I *D sky130_fd_sc_hd__or4_1
*I *559:A1 I *D sky130_fd_sc_hd__o211a_1
*I *540:A2 I *D sky130_fd_sc_hd__o41a_1
*I *567:A I *D sky130_fd_sc_hd__nand2_1
*I *491:Y O *D sky130_fd_sc_hd__inv_2
*CAP
1 *537:B 0.000109509
2 *559:A1 0.000199931
3 *540:A2 0
4 *567:A 2.18671e-05
5 *491:Y 0
6 *76:27 0.000476041
7 *76:14 0.00142481
8 *76:4 0.00123634
9 *537:B *504:D_N 0.000124895
10 *537:B *537:C 2.0514e-05
11 *559:A1 *536:B_N 0
12 *559:A1 *559:A2 0.000115035
13 *559:A1 *559:C1 6.95753e-05
14 *559:A1 *114:35 0.000155948
15 *559:A1 *115:52 0
16 *559:A1 *132:60 1.26548e-05
17 *559:A1 *133:64 5.47882e-05
18 *567:A *528:D 2.38193e-05
19 *567:A *103:26 0
20 *567:A *133:12 0
21 *76:14 *524:A 0
22 *76:14 *89:12 0
23 *76:14 *89:22 0.00010189
24 *76:14 *91:12 2.67022e-05
25 *76:14 *112:31 0.000590765
26 *76:27 *528:D 7.34363e-05
27 *76:27 *132:60 3.60648e-05
28 *76:27 *133:12 0
29 *76:27 *133:40 0.000304726
30 *76:27 *133:64 8.53113e-06
31 *76:27 *135:47 0
32 *76:27 *135:99 0
*RES
1 *491:Y *76:4 1.6 
2 *76:4 *76:14 6.32983 
3 *76:14 *567:A 4.0875 
4 *76:14 *76:27 5.7825 
5 *76:27 *540:A2 3.6 
6 *76:27 *559:A1 7.5 
7 *76:4 *537:B 3.085 
*END

*D_NET *77 0.0022039
*CONN
*I *533:A1 I *D sky130_fd_sc_hd__o2111a_1
*I *492:Y O *D sky130_fd_sc_hd__inv_2
*CAP
1 *533:A1 0.000517954
2 *492:Y 0.000517954
3 *533:A1 *501:A 0.000139245
4 *533:A1 *533:A2 8.40213e-05
5 *533:A1 *533:C1 4.66742e-05
6 *533:A1 *557:A3 0
7 *533:A1 *78:40 0
8 *533:A1 *94:12 0.000116158
9 *533:A1 *107:53 0.000382758
10 *533:A1 *109:18 1.12578e-05
11 *533:A1 *114:62 8.40269e-05
12 *533:A1 *135:64 6.10014e-05
13 *533:A1 *135:99 0.000242844
*RES
1 *492:Y *533:A1 20.875 
*END

*D_NET *78 0.00806474
*CONN
*I *555:A I *D sky130_fd_sc_hd__nand3_1
*I *538:A I *D sky130_fd_sc_hd__nand3_1
*I *547:A1 I *D sky130_fd_sc_hd__a32o_1
*I *562:A1 I *D sky130_fd_sc_hd__a211o_1
*I *559:C1 I *D sky130_fd_sc_hd__o211a_1
*I *533:A2 I *D sky130_fd_sc_hd__o2111a_1
*I *501:Y O *D sky130_fd_sc_hd__inv_2
*CAP
1 *555:A 5.3053e-05
2 *538:A 0.00022652
3 *547:A1 2.42498e-05
4 *562:A1 2.08101e-05
5 *559:C1 5.27598e-05
6 *533:A2 0.000175778
7 *501:Y 0
8 *78:68 0.000589145
9 *78:53 0.000739875
10 *78:40 0.00124393
11 *78:6 0.000524181
12 *78:4 0.00111271
13 *533:A2 *533:C1 4.05089e-05
14 *533:A2 *540:A4 4.16922e-05
15 *533:A2 *540:B1 1.82682e-05
16 *538:A *500:A 0.000542768
17 *538:A *538:B 0.000374246
18 *538:A *545:A1 0
19 *538:A *94:43 0
20 *547:A1 *120:20 4.88555e-05
21 *555:A *545:B1 0.000122331
22 *559:C1 *541:B 1.97849e-05
23 *559:C1 *98:10 8.53113e-06
24 *559:C1 *114:35 2.35349e-05
25 *559:C1 *133:64 6.83447e-05
26 *78:6 *540:A4 0.000405947
27 *78:40 *531:A_N 0
28 *78:40 *540:A4 7.66083e-05
29 *78:40 *557:A4 5.44667e-05
30 *78:40 *557:B1 0
31 *78:40 *560:B1 9.27255e-06
32 *78:40 *135:99 0
33 *78:53 *547:A2 8.49205e-05
34 *78:53 *548:B1 9.79155e-05
35 *78:53 *560:B1 0.00011577
36 *78:68 *545:B1 7.24019e-05
37 *78:68 *555:B 0
38 *533:A1 *533:A2 8.40213e-05
39 *533:A1 *78:40 0
40 *544:A1 *533:A2 8.65905e-05
41 *547:A3 *78:53 1.91597e-05
42 *547:B1 *547:A1 2.95708e-05
43 *547:B1 *78:68 2.09749e-05
44 *548:A1 *78:53 3.04857e-05
45 *548:A1 *78:68 7.22537e-05
46 *548:A2 *78:53 5.062e-06
47 *556:A3 *78:68 0
48 *558:B *78:40 0
49 *559:A1 *559:C1 6.95753e-05
50 *560:A1 *78:40 7.4027e-05
51 *560:A2 *78:40 0.000112631
52 *562:A2 *78:40 1.61831e-05
53 *56:25 *78:40 0.000274659
54 *56:40 *78:40 0.000180373
*RES
1 *501:Y *78:4 1.6 
2 *78:4 *78:6 3.9 
3 *78:6 *533:A2 4.84 
4 *78:6 *559:C1 6.98 
5 *78:4 *78:40 16.015 
6 *78:40 *562:A1 1.96 
7 *78:40 *78:53 6.6 
8 *78:53 *547:A1 6.215 
9 *78:53 *78:68 4.17 
10 *78:68 *538:A 12.08 
11 *78:68 *555:A 2.74 
*END

*D_NET *79 0.00862895
*CONN
*I *512:B I *D sky130_fd_sc_hd__or2_1
*I *520:B I *D sky130_fd_sc_hd__or2_1
*I *612:A I *D sky130_fd_sc_hd__buf_1
*I *508:B I *D sky130_fd_sc_hd__or2_1
*I *504:Y O *D sky130_fd_sc_hd__nor4b_1
*CAP
1 *512:B 0.000199678
2 *520:B 0.000408328
3 *612:A 0
4 *508:B 0.000460233
5 *504:Y 0.00132976
6 *79:36 0.00106797
7 *79:14 0.0005518
8 *79:10 0.00188129
9 *508:B *508:A 0.000318091
10 *508:B *575:CLK 5.72091e-05
11 *508:B *632:A 0.000151541
12 *508:B *142:10 0
13 *512:B *507:C1 0
14 *512:B *512:A 0.00025314
15 *512:B *136:70 9.27255e-06
16 *512:B *148:12 0.00012657
17 *520:B *520:A 4.82919e-05
18 *520:B *596:A 0.000206137
19 *520:B *614:A 9.84957e-05
20 *520:B *111:10 0.000141592
21 *520:B *116:10 0
22 *520:B *117:45 1.83847e-05
23 *520:B *136:83 0
24 *79:10 *105:14 4.66108e-05
25 *79:10 *134:27 0.000102208
26 *79:10 *136:57 1.56428e-05
27 *79:14 *503:B 1.1561e-05
28 *79:14 *521:A2 1.03592e-05
29 *79:14 *575:CLK 4.18603e-06
30 *79:14 *80:39 0.000193116
31 *79:14 *136:53 0.000115888
32 *79:14 *136:118 5.10587e-05
33 *79:36 *507:C1 5.30673e-05
34 *79:36 *513:A1 1.59999e-05
35 *79:36 *513:A2 6.45599e-06
36 *79:36 *513:B1 0.000176625
37 *79:36 *136:57 6.07575e-06
38 *539:A2 *79:10 0.000327653
39 *539:A3 *79:10 4.66108e-05
40 *572:D *508:B 0
41 *575:D *79:14 0
42 *581:D *79:10 0.000118036
*RES
1 *504:Y *79:10 22.435 
2 *79:10 *79:14 4.655 
3 *79:14 *508:B 12.285 
4 *79:14 *612:A 3.6 
5 *79:10 *79:36 5.985 
6 *79:36 *520:B 13.805 
7 *79:36 *512:B 5.53 
*END

*D_NET *80 0.0128104
*CONN
*I *507:A2 I *D sky130_fd_sc_hd__o211a_1
*I *519:A2 I *D sky130_fd_sc_hd__o211a_1
*I *517:A2 I *D sky130_fd_sc_hd__o211a_1
*I *515:A2 I *D sky130_fd_sc_hd__o211a_1
*I *511:A2 I *D sky130_fd_sc_hd__o211a_1
*I *513:A2 I *D sky130_fd_sc_hd__o211a_1
*I *521:A2 I *D sky130_fd_sc_hd__o211a_1
*I *509:A2 I *D sky130_fd_sc_hd__o211a_1
*I *523:B I *D sky130_fd_sc_hd__nand2_2
*I *522:B I *D sky130_fd_sc_hd__and2_2
*I *505:X O *D sky130_fd_sc_hd__or4b_4
*CAP
1 *507:A2 0
2 *519:A2 0.000267378
3 *517:A2 0.000121666
4 *515:A2 0
5 *511:A2 8.46054e-05
6 *513:A2 9.43851e-06
7 *521:A2 0.000521096
8 *509:A2 0
9 *523:B 1.88809e-05
10 *522:B 0.0001302
11 *505:X 0
12 *80:107 0.000661459
13 *80:94 0.000414429
14 *80:81 0.000735439
15 *80:73 0.000801042
16 *80:54 0.000341755
17 *80:39 0.000997348
18 *80:26 0.000661115
19 *80:15 0.000630602
20 *80:4 0.000516964
21 *511:A2 *511:A1 0.000139238
22 *511:A2 *511:C1 0
23 *513:A2 *513:A1 8.41703e-06
24 *513:A2 *513:B1 1.29068e-05
25 *517:A2 *517:A1 3.70572e-05
26 *517:A2 *577:CLK 8.49205e-05
27 *517:A2 *630:A 7.67415e-06
28 *517:A2 *117:45 0
29 *519:A2 *518:B 0
30 *519:A2 *578:CLK 9.78798e-05
31 *519:A2 *627:A 0
32 *519:A2 *104:69 1.07797e-05
33 *521:A2 *503:A_N 0
34 *521:A2 *503:B 0.000196342
35 *521:A2 *513:A1 0.000155185
36 *521:A2 *521:B1 0.000136884
37 *521:A2 *521:C1 1.89097e-05
38 *521:A2 *571:CLK 6.28687e-05
39 *521:A2 *117:45 2.06083e-05
40 *522:B *505:D_N 7.60965e-05
41 *522:B *599:A 0.000375654
42 *522:B *135:20 0.000494619
43 *523:B *523:A 5.4155e-06
44 *80:15 *599:A 0.00012657
45 *80:15 *90:10 0.000354719
46 *80:15 *136:29 0.000175887
47 *80:15 *136:38 4.60584e-05
48 *80:26 *509:C1 4.00541e-06
49 *80:26 *136:38 0.000191243
50 *80:26 *136:53 3.94429e-05
51 *80:39 *507:A1 0
52 *80:39 *509:C1 9.72742e-06
53 *80:39 *136:53 0.000738315
54 *80:73 *507:A1 0.000342804
55 *80:73 *507:B1 8.7152e-06
56 *80:81 *507:A1 3.82072e-05
57 *80:81 *507:B1 7.1009e-05
58 *80:81 *634:A 4.35348e-05
59 *80:81 *136:57 0.000198939
60 *80:81 *136:70 0.000378802
61 *80:81 *148:12 4.47209e-05
62 *80:94 *511:A1 0.000273702
63 *80:94 *515:A1 5.4003e-05
64 *80:94 *515:B1 0.000316813
65 *80:94 *104:69 5.47882e-05
66 *80:94 *136:83 0
67 *80:107 *515:A1 1.56428e-05
68 *80:107 *516:A 5.33874e-05
69 *80:107 *518:B 0
70 *80:107 *104:69 0.000160544
71 *80:107 *130:36 0
72 *572:D *80:81 0
73 *575:D *80:39 0
74 *576:D *80:107 4.05674e-06
75 *578:D *519:A2 0
76 *79:14 *521:A2 1.03592e-05
77 *79:14 *80:39 0.000193116
78 *79:36 *513:A2 6.45599e-06
*RES
1 *505:X *80:4 1.6 
2 *80:4 *522:B 6.895 
3 *80:4 *80:15 7.695 
4 *80:15 *523:B 1.96 
5 *80:15 *80:26 4.26 
6 *80:26 *509:A2 1.6 
7 *80:26 *80:39 11.9825 
8 *80:39 *521:A2 14.4225 
9 *80:39 *80:54 0.45 
10 *80:54 *513:A2 3.94875 
11 *80:54 *80:73 1.7949 
12 *80:73 *80:81 11.53 
13 *80:81 *511:A2 5.235 
14 *80:81 *80:94 6.95 
15 *80:94 *515:A2 1.6 
16 *80:94 *80:107 7.265 
17 *80:107 *517:A2 5.91 
18 *80:107 *519:A2 8.295 
19 *80:73 *507:A2 3.6 
*END

*D_NET *81 0.00132578
*CONN
*I *507:B1 I *D sky130_fd_sc_hd__o211a_1
*I *506:X O *D sky130_fd_sc_hd__or2_1
*CAP
1 *507:B1 0.000444831
2 *506:X 0.000444831
3 *507:B1 *104:56 0.000356395
4 *507:B1 *148:12 0
5 *572:D *507:B1 0
6 *80:73 *507:B1 8.7152e-06
7 *80:81 *507:B1 7.1009e-05
*RES
1 *506:X *507:B1 14.085 
*END

*D_NET *82 0.000815196
*CONN
*I *509:B1 I *D sky130_fd_sc_hd__o211a_1
*I *508:X O *D sky130_fd_sc_hd__or2_1
*CAP
1 *509:B1 0.000375218
2 *508:X 0.000375218
3 *509:B1 *113:10 6.47594e-05
4 *573:D *509:B1 0
*RES
1 *508:X *509:B1 12.45 
*END

*D_NET *83 0.000398525
*CONN
*I *511:B1 I *D sky130_fd_sc_hd__o211a_1
*I *510:X O *D sky130_fd_sc_hd__or2_1
*CAP
1 *511:B1 0.000128601
2 *510:X 0.000128601
3 *511:B1 *130:21 0.000141323
*RES
1 *510:X *511:B1 5.735 
*END

*D_NET *84 0.00107531
*CONN
*I *513:B1 I *D sky130_fd_sc_hd__o211a_1
*I *512:X O *D sky130_fd_sc_hd__or2_1
*CAP
1 *513:B1 0.000131944
2 *512:X 0.000131944
3 *513:B1 *507:C1 4.99619e-05
4 *513:B1 *513:A1 3.08098e-05
5 *513:B1 *136:57 0.000541113
6 *513:A2 *513:B1 1.29068e-05
7 *79:36 *513:B1 0.000176625
*RES
1 *512:X *513:B1 8.50625 
*END

*D_NET *85 0.00103693
*CONN
*I *515:B1 I *D sky130_fd_sc_hd__o211a_1
*I *514:X O *D sky130_fd_sc_hd__or2_1
*CAP
1 *515:B1 0.000258561
2 *514:X 0.000258561
3 *515:B1 *634:A 7.32791e-05
4 *515:B1 *136:83 0.000126743
5 *515:B1 *136:94 2.97004e-06
6 *80:94 *515:B1 0.000316813
*RES
1 *514:X *515:B1 12.705 
*END

*D_NET *86 0.000799944
*CONN
*I *517:B1 I *D sky130_fd_sc_hd__o211a_1
*I *516:X O *D sky130_fd_sc_hd__or2_1
*CAP
1 *517:B1 0.000222274
2 *516:X 0.000222274
3 *517:B1 *519:C1 2.97004e-06
4 *517:B1 *553:B1 0.000189886
5 *517:B1 *614:A 0.000107424
6 *517:B1 *136:94 5.51158e-05
*RES
1 *516:X *517:B1 11.01 
*END

*D_NET *87 0.000701869
*CONN
*I *519:B1 I *D sky130_fd_sc_hd__o211a_1
*I *518:X O *D sky130_fd_sc_hd__or2_1
*CAP
1 *519:B1 0.00020305
2 *518:X 0.00020305
3 *519:B1 *494:A 0.000134314
4 *519:B1 *518:A 8.8266e-05
5 *519:B1 *519:A1 5.4155e-06
6 *519:B1 *519:C1 1.85674e-05
7 *519:B1 *118:36 4.92062e-05
*RES
1 *518:X *519:B1 7.115 
*END

*D_NET *88 0.00135175
*CONN
*I *521:B1 I *D sky130_fd_sc_hd__o211a_1
*I *520:X O *D sky130_fd_sc_hd__or2_1
*CAP
1 *521:B1 0.000186921
2 *520:X 0.000186921
3 *521:B1 *502:A 9.14035e-05
4 *521:B1 *521:C1 7.55391e-05
5 *521:B1 *551:B1 0.000500245
6 *521:B1 *630:A 0.000173833
7 *521:A2 *521:B1 0.000136884
*RES
1 *520:X *521:B1 14.115 
*END

*D_NET *89 0.0117591
*CONN
*I *548:B1 I *D sky130_fd_sc_hd__o21a_1
*I *560:B1 I *D sky130_fd_sc_hd__o31a_1
*I *564:A I *D sky130_fd_sc_hd__and3_1
*I *566:A I *D sky130_fd_sc_hd__and3_1
*I *568:A I *D sky130_fd_sc_hd__and3_1
*I *544:B1 I *D sky130_fd_sc_hd__o31a_1
*I *534:B1 I *D sky130_fd_sc_hd__o21a_1
*I *522:X O *D sky130_fd_sc_hd__and2_2
*CAP
1 *548:B1 8.06428e-05
2 *560:B1 0.000581867
3 *564:A 0
4 *566:A 0
5 *568:A 0
6 *544:B1 0.000154437
7 *534:B1 0.000185162
8 *522:X 0
9 *89:83 0.0010396
10 *89:42 0.000756014
11 *89:36 0.000822136
12 *89:22 0.00113146
13 *89:12 0.000931127
14 *89:6 0.000582477
15 *534:B1 *109:12 0.000502803
16 *534:B1 *112:25 4.97815e-05
17 *89:12 *505:D_N 1.94892e-05
18 *89:12 *588:CLK 0
19 *89:12 *91:23 8.53113e-06
20 *89:12 *135:20 0.000275548
21 *89:22 *567:B 8.8266e-05
22 *89:22 *93:14 1.68507e-05
23 *89:22 *103:18 2.24342e-05
24 *89:22 *135:20 0.000150489
25 *89:22 *135:24 0.000617721
26 *89:36 *528:C 5.53249e-06
27 *89:36 *528:D 5.84694e-05
28 *89:36 *567:B 2.30292e-05
29 *89:36 *95:6 0.000118294
30 *89:36 *95:10 5.4155e-06
31 *89:36 *107:21 2.54692e-05
32 *89:36 *129:40 4.82863e-05
33 *89:36 *129:46 4.82919e-05
34 *89:42 *543:D 0
35 *89:42 *570:A1 0
36 *89:42 *597:A 8.53113e-06
37 *89:42 *95:6 2.26018e-05
38 *89:42 *95:10 2.30292e-05
39 *89:42 *109:18 0
40 *89:42 *112:25 0
41 *89:42 *129:46 0
42 *89:42 *132:14 0.000152471
43 *89:42 *132:34 3.75492e-05
44 *89:83 *505:D_N 4.54788e-05
45 *89:83 *554:A 5.55458e-05
46 *89:83 *554:D 0.000112123
47 *89:83 *562:C1 9.70559e-05
48 *89:83 *91:23 0.000141164
49 *89:83 *91:32 0.000353542
50 *89:83 *107:64 0
51 *89:83 *132:81 0.000130463
52 *544:A1 *544:B1 3.58803e-06
53 *544:A2 *544:B1 5.10587e-05
54 *544:A3 *534:B1 4.82863e-05
55 *544:A3 *544:B1 0
56 *558:B *560:B1 2.75229e-05
57 *560:A2 *560:B1 0.000290837
58 *562:A2 *560:B1 0.000307333
59 *562:B1 *89:83 8.08153e-06
60 *564:C *89:12 8.32699e-05
61 *564:C *89:22 4.99619e-05
62 *566:C *89:22 1.70906e-05
63 *568:C *89:36 0.000344314
64 *568:C *89:42 9.49276e-05
65 *583:D *89:83 3.09164e-05
66 *589:D *89:22 0.000156375
67 *590:D *89:42 4.82919e-05
68 *591:D *89:42 8.0005e-05
69 *56:25 *560:B1 0.000201503
70 *60:42 *89:83 6.16995e-05
71 *76:14 *89:12 0
72 *76:14 *89:22 0.00010189
73 *78:40 *560:B1 9.27255e-06
74 *78:53 *548:B1 9.79155e-05
75 *78:53 *560:B1 0.00011577
*RES
1 *522:X *89:6 3.6 
2 *89:6 *89:12 5.645 
3 *89:12 *89:22 11.385 
4 *89:22 *89:36 11.92 
5 *89:36 *89:42 10.4 
6 *89:42 *534:B1 8.805 
7 *89:42 *544:B1 5.355 
8 *89:36 *568:A 1.6 
9 *89:22 *566:A 1.6 
10 *89:12 *564:A 1.6 
11 *89:6 *89:83 12.05 
12 *89:83 *560:B1 12.205 
13 *89:83 *548:B1 3.1 
*END

*D_NET *90 0.0117837
*CONN
*I *552:B1 I *D sky130_fd_sc_hd__a31oi_1
*I *556:B1 I *D sky130_fd_sc_hd__a31oi_1
*I *562:C1 I *D sky130_fd_sc_hd__a211o_1
*I *570:B1 I *D sky130_fd_sc_hd__a21oi_1
*I *539:B1 I *D sky130_fd_sc_hd__a31oi_1
*I *523:Y O *D sky130_fd_sc_hd__nand2_2
*CAP
1 *552:B1 7.08675e-06
2 *556:B1 0.000234892
3 *562:C1 0.000465377
4 *570:B1 0.0010459
5 *539:B1 0
6 *523:Y 0.00020882
7 *90:59 0.000490882
8 *90:27 0.00205635
9 *90:19 0.00080516
10 *90:10 0.000220002
11 *552:B1 *594:A 4.82919e-05
12 *556:B1 *493:A 4.82863e-05
13 *556:B1 *553:A1 1.46828e-05
14 *556:B1 *553:B1 0
15 *556:B1 *555:B 1.08758e-05
16 *556:B1 *561:B1 7.14892e-06
17 *556:B1 *99:19 6.29902e-05
18 *556:B1 *99:30 0.00010808
19 *556:B1 *115:52 3.79595e-05
20 *562:C1 *524:B 4.10092e-05
21 *562:C1 *554:B 0.000150653
22 *562:C1 *103:8 0
23 *562:C1 *103:12 0
24 *562:C1 *103:106 0
25 *562:C1 *107:60 8.49205e-05
26 *562:C1 *107:64 0.000101673
27 *562:C1 *107:68 0.000149919
28 *562:C1 *115:52 9.51192e-05
29 *570:B1 *524:A 4.82919e-05
30 *570:B1 *526:A 8.40213e-05
31 *570:B1 *530:A1 0.00011577
32 *570:B1 *537:C 0.000166811
33 *570:B1 *598:A 0.000311282
34 *570:B1 *93:6 2.45351e-05
35 *570:B1 *132:49 0.000159305
36 *570:B1 *133:6 7.68414e-06
37 *570:B1 *133:40 4.60584e-05
38 *570:B1 *135:43 0.000161529
39 *570:B1 *135:51 0.000386215
40 *90:10 *539:A1 1.56296e-05
41 *90:10 *136:29 0.000353049
42 *90:19 *539:A1 5.02126e-06
43 *90:27 *507:A1 0.000179204
44 *90:27 *524:B 0.000651878
45 *90:27 *103:12 0
46 *90:27 *112:31 0.00118015
47 *90:27 *115:52 0
48 *90:59 *539:A1 0.000180661
49 *90:59 *593:A 4.82919e-05
50 *90:59 *594:A 0.00026389
51 *90:59 *99:19 0
52 *552:A1 *552:B1 3.83041e-05
53 *552:A1 *90:59 0.000313857
54 *552:A3 *556:B1 0
55 *556:A1 *556:B1 8.49205e-05
56 *562:B1 *562:C1 9.50342e-06
57 *581:D *90:10 0
58 *80:15 *90:10 0.000354719
59 *89:83 *562:C1 9.70559e-05
*RES
1 *523:Y *90:10 9.21 
2 *90:10 *539:B1 3.6 
3 *90:10 *90:19 0.2325 
4 *90:19 *90:27 3.25157 
5 *90:27 *570:B1 22.335 
6 *90:27 *562:C1 17.89 
7 *90:19 *90:59 8.9225 
8 *90:59 *556:B1 10.58 
9 *90:59 *552:B1 2.05 
*END

*D_NET *91 0.00612628
*CONN
*I *554:D I *D sky130_fd_sc_hd__or4_1
*I *557:A4 I *D sky130_fd_sc_hd__o41a_1
*I *540:A4 I *D sky130_fd_sc_hd__o41a_1
*I *537:D I *D sky130_fd_sc_hd__or4_1
*I *564:B I *D sky130_fd_sc_hd__and3_1
*I *524:Y O *D sky130_fd_sc_hd__nand2_1
*CAP
1 *554:D 0.000130918
2 *557:A4 0.000110837
3 *540:A4 0.000189269
4 *537:D 0
5 *564:B 0
6 *524:Y 0.000114519
7 *91:36 0.000560231
8 *91:32 0.000572593
9 *91:23 0.000382107
10 *91:12 0.000315075
11 *540:A4 *540:B1 6.3573e-05
12 *540:A4 *114:62 1.19928e-05
13 *540:A4 *132:77 0.000300722
14 *554:D *554:A 0.000122331
15 *554:D *554:B 5.6361e-05
16 *554:D *107:64 0
17 *554:D *115:52 0.000270415
18 *557:A4 *557:A3 6.41344e-05
19 *91:12 *524:A 4.05358e-05
20 *91:12 *599:A 0.000124895
21 *91:23 *504:D_N 1.88218e-05
22 *91:23 *524:A 0
23 *91:23 *599:A 0.000152328
24 *91:32 *504:D_N 2.67753e-05
25 *91:32 *107:68 0
26 *91:36 *132:77 0.000627847
27 *533:A2 *540:A4 4.16922e-05
28 *60:8 *91:36 0.000649222
29 *76:14 *91:12 2.67022e-05
30 *78:6 *540:A4 0.000405947
31 *78:40 *540:A4 7.66083e-05
32 *78:40 *557:A4 5.44667e-05
33 *89:12 *91:23 8.53113e-06
34 *89:83 *554:D 0.000112123
35 *89:83 *91:23 0.000141164
36 *89:83 *91:32 0.000353542
*RES
1 *524:Y *91:12 7.61 
2 *91:12 *564:B 1.6 
3 *91:12 *91:23 5.375 
4 *91:23 *537:D 3.6 
5 *91:23 *91:32 4.185 
6 *91:32 *91:36 10.385 
7 *91:36 *540:A4 7.81 
8 *91:36 *557:A4 7.79 
9 *91:32 *554:D 7.5 
*END

*D_NET *92 0.00300611
*CONN
*I *547:B2 I *D sky130_fd_sc_hd__a32o_1
*I *551:A1 I *D sky130_fd_sc_hd__a21o_1
*I *525:X O *D sky130_fd_sc_hd__and3_1
*CAP
1 *547:B2 7.74945e-06
2 *551:A1 0.00075836
3 *525:X 0.000151857
4 *92:12 0.000917966
5 *547:B2 *545:A1 5.02814e-06
6 *547:B2 *120:20 0
7 *551:A1 *585:CLK 0
8 *551:A1 *115:52 1.42916e-05
9 *92:12 *545:A1 1.41634e-05
10 *92:12 *94:43 3.49165e-05
11 *92:12 *120:20 0
12 *92:12 *134:40 4.82863e-05
13 *545:A2 *547:B2 8.7152e-06
14 *545:A2 *551:A1 6.32198e-05
15 *550:B *551:A1 1.71416e-05
16 *556:A2 *551:A1 0.000388993
17 *556:A2 *92:12 6.15576e-06
18 *60:74 *551:A1 0.000569264
*RES
1 *525:X *92:12 5.7525 
2 *92:12 *551:A1 6.81523 
3 *92:12 *547:B2 3.8325 
*END

*D_NET *93 0.00226917
*CONN
*I *549:B I *D sky130_fd_sc_hd__or3b_1
*I *566:B I *D sky130_fd_sc_hd__and3_1
*I *567:B I *D sky130_fd_sc_hd__nand2_1
*I *526:Y O *D sky130_fd_sc_hd__nand3_1
*CAP
1 *549:B 0.000180237
2 *566:B 0
3 *567:B 8.41832e-05
4 *526:Y 4.56344e-05
5 *93:14 0.000441883
6 *93:6 0.00058357
7 *549:B *501:A 0
8 *549:B *526:A 0
9 *549:B *557:A3 0.000245527
10 *549:B *598:A 4.80285e-05
11 *549:B *133:116 7.57202e-05
12 *549:B *135:99 0
13 *93:6 *526:A 4.66742e-05
14 *93:6 *598:A 5.83121e-06
15 *93:6 *133:6 8.40213e-05
16 *93:6 *133:116 8.49205e-05
17 *93:14 *526:A 4.61196e-05
18 *93:14 *598:A 0
19 *93:14 *103:18 0.000102931
20 *570:B1 *93:6 2.45351e-05
21 *589:D *567:B 2.94787e-05
22 *589:D *93:14 1.17309e-05
23 *89:22 *567:B 8.8266e-05
24 *89:22 *93:14 1.68507e-05
25 *89:36 *567:B 2.30292e-05
*RES
1 *526:Y *93:6 3.085 
2 *93:6 *93:14 8.68 
3 *93:14 *567:B 3.61 
4 *93:14 *566:B 1.6 
5 *93:6 *549:B 9.56 
*END

*D_NET *94 0.00974765
*CONN
*I *542:A I *D sky130_fd_sc_hd__and2_1
*I *547:A2 I *D sky130_fd_sc_hd__a32o_1
*I *545:A1 I *D sky130_fd_sc_hd__a21oi_1
*I *535:A1 I *D sky130_fd_sc_hd__a21o_1
*I *538:B I *D sky130_fd_sc_hd__nand3_1
*I *533:B1 I *D sky130_fd_sc_hd__o2111a_1
*I *527:X O *D sky130_fd_sc_hd__and2b_1
*CAP
1 *542:A 0.000156455
2 *547:A2 7.97103e-05
3 *545:A1 4.84077e-05
4 *535:A1 0.000154707
5 *538:B 0.000204223
6 *533:B1 8.10885e-05
7 *527:X 0.000154015
8 *94:43 0.000500706
9 *94:37 0.000401815
10 *94:31 0.00240353
11 *94:23 0.00239002
12 *94:12 0.000356478
13 *535:A1 *521:C1 0.000345832
14 *535:A1 *545:B1 0.000200615
15 *538:B *500:A 1.15688e-05
16 *538:B *129:12 4.80285e-05
17 *538:B *134:27 3.89528e-05
18 *538:B *134:40 0.000120836
19 *542:A *541:B 6.57653e-06
20 *542:A *541:C_N 0
21 *542:A *114:35 0.000237243
22 *547:A2 *120:20 4.67276e-05
23 *94:12 *129:46 0
24 *94:12 *129:55 0
25 *94:12 *135:64 1.08194e-05
26 *94:23 *536:C 6.57653e-06
27 *94:23 *541:B 0
28 *94:23 *541:C_N 0
29 *94:23 *129:55 0
30 *94:31 *120:20 5.35968e-05
31 *94:31 *133:91 0.000112127
32 *94:43 *521:C1 0.000160635
33 *94:43 *120:20 0
34 *94:43 *134:40 7.58604e-05
35 *533:A1 *94:12 0.000116158
36 *538:A *538:B 0.000374246
37 *538:A *545:A1 0
38 *538:A *94:43 0
39 *542:B *542:A 9.52646e-05
40 *544:A1 *533:B1 0.000124895
41 *545:A2 *545:A1 2.98807e-05
42 *545:A2 *94:31 1.75825e-05
43 *547:A3 *547:A2 4.82919e-05
44 *547:B2 *545:A1 5.02814e-06
45 *548:A1 *547:A2 1.34503e-05
46 *548:A1 *94:37 0.000309618
47 *56:25 *542:A 4.35348e-05
48 *56:44 *547:A2 2.85364e-05
49 *60:42 *547:A2 0
50 *60:42 *94:31 0
51 *78:53 *547:A2 8.49205e-05
52 *92:12 *545:A1 1.41634e-05
53 *92:12 *94:43 3.49165e-05
*RES
1 *527:X *94:12 6.3 
2 *94:12 *533:B1 4.74 
3 *94:12 *94:23 1.7625 
4 *94:23 *94:31 5.4369 
5 *94:31 *94:37 6.865 
6 *94:37 *94:43 4.865 
7 *94:43 *538:B 11.09 
8 *94:43 *535:A1 5.86 
9 *94:37 *545:A1 4.47 
10 *94:31 *547:A2 5.52 
11 *94:23 *542:A 7.5375 
*END

*D_NET *95 0.00196402
*CONN
*I *568:B I *D sky130_fd_sc_hd__and3_1
*I *530:A2 I *D sky130_fd_sc_hd__o21a_1
*I *529:B I *D sky130_fd_sc_hd__or2_1
*I *569:B I *D sky130_fd_sc_hd__nand2_1
*I *528:Y O *D sky130_fd_sc_hd__nand4_1
*CAP
1 *568:B 0
2 *530:A2 6.40794e-05
3 *529:B 7.34067e-06
4 *569:B 5.99316e-05
5 *528:Y 0.000186135
6 *95:12 8.92806e-05
7 *95:10 0.000230643
8 *95:6 0.00033069
9 *529:B *569:A 1.49498e-05
10 *530:A2 *570:A1 2.87867e-05
11 *569:B *569:A 3.54536e-05
12 *95:10 *570:A1 3.00381e-05
13 *95:10 *132:8 0.000134938
14 *95:10 *132:14 0.000376239
15 *95:12 *569:A 3.90495e-05
16 *95:12 *132:14 1.16578e-05
17 *570:A2 *530:A2 7.23602e-05
18 *570:A2 *569:B 5.30673e-05
19 *570:A2 *95:12 3.00381e-05
20 *591:D *530:A2 0
21 *89:36 *95:6 0.000118294
22 *89:36 *95:10 5.4155e-06
23 *89:42 *95:6 2.26018e-05
24 *89:42 *95:10 2.30292e-05
*RES
1 *528:Y *95:6 4.12 
2 *95:6 *95:10 4.515 
3 *95:10 *95:12 0.795 
4 *95:12 *569:B 3.1 
5 *95:12 *529:B 1.96 
6 *95:10 *530:A2 7.085 
7 *95:6 *568:B 1.6 
*END

*D_NET *96 0.000332418
*CONN
*I *570:A1 I *D sky130_fd_sc_hd__a21oi_1
*I *529:X O *D sky130_fd_sc_hd__or2_1
*CAP
1 *570:A1 0.000117466
2 *529:X 0.000117466
3 *530:A2 *570:A1 2.87867e-05
4 *570:A2 *570:A1 0
5 *591:D *570:A1 3.86607e-05
6 *89:42 *570:A1 0
7 *95:10 *570:A1 3.00381e-05
*RES
1 *529:X *570:A1 9.285 
*END

*D_NET *97 0.000684809
*CONN
*I *534:A1 I *D sky130_fd_sc_hd__o21a_1
*I *530:X O *D sky130_fd_sc_hd__o21a_1
*CAP
1 *534:A1 0.000187505
2 *530:X 0.000187505
3 *534:A1 *534:A2 1.88656e-05
4 *534:A1 *103:34 0
5 *534:A1 *112:25 0.000290934
*RES
1 *530:X *534:A1 11.07 
*END

*D_NET *98 0.00166664
*CONN
*I *559:A2 I *D sky130_fd_sc_hd__o211a_1
*I *543:B_N I *D sky130_fd_sc_hd__and4bb_1
*I *531:X O *D sky130_fd_sc_hd__and2b_1
*CAP
1 *559:A2 8.97258e-05
2 *543:B_N 0.00014656
3 *531:X 6.5324e-05
4 *98:10 0.00030161
5 *543:B_N *536:B_N 1.91597e-05
6 *543:B_N *536:C 9.2741e-05
7 *543:B_N *536:D 7.35813e-05
8 *559:A2 *536:A_N 8.73389e-06
9 *559:A2 *536:B_N 2.04101e-05
10 *98:10 *541:B 0.000133541
11 *98:10 *114:35 5.51796e-05
12 *543:C *543:B_N 0.000122337
13 *559:A1 *559:A2 0.000115035
14 *559:B1 *543:B_N 0.000337929
15 *559:B1 *559:A2 7.62426e-05
16 *559:C1 *98:10 8.53113e-06
*RES
1 *531:X *98:10 7.235 
2 *98:10 *543:B_N 6.205 
3 *98:10 *559:A2 3.805 
*END

*D_NET *99 0.00415734
*CONN
*I *550:A I *D sky130_fd_sc_hd__nand2_1
*I *553:A1 I *D sky130_fd_sc_hd__a21o_1
*I *555:B I *D sky130_fd_sc_hd__nand3_1
*I *535:A2 I *D sky130_fd_sc_hd__a21o_1
*I *538:C I *D sky130_fd_sc_hd__nand3_1
*I *532:X O *D sky130_fd_sc_hd__and3b_1
*CAP
1 *550:A 5.05075e-05
2 *553:A1 0.000207785
3 *555:B 0.000217749
4 *535:A2 0
5 *538:C 0
6 *532:X 7.47721e-05
7 *99:30 0.000551804
8 *99:19 0.000375742
9 *99:15 0.000381307
10 *99:8 0.0001561
11 *550:A *596:A 0.000306433
12 *550:A *114:62 0.000154289
13 *553:A1 *493:A 0.000275553
14 *555:B *545:B1 1.19928e-05
15 *99:8 *114:62 0.000193801
16 *99:8 *129:12 0.000199662
17 *99:15 *596:A 0.000203178
18 *99:15 *114:62 0.000121103
19 *99:15 *129:12 4.82919e-05
20 *99:19 *521:C1 0
21 *99:19 *535:B1 4.18603e-06
22 *99:19 *539:A1 0
23 *99:19 *115:52 3.96263e-05
24 *99:30 *493:A 2.82887e-05
25 *99:30 *535:B1 3.18907e-05
26 *550:B *99:19 0
27 *552:A2 *99:19 0
28 *556:A1 *555:B 1.33285e-05
29 *556:A2 *555:B 8.49205e-05
30 *556:A2 *99:30 0.000121551
31 *556:A3 *555:B 9.73493e-05
32 *556:B1 *553:A1 1.46828e-05
33 *556:B1 *555:B 1.08758e-05
34 *556:B1 *99:19 6.29902e-05
35 *556:B1 *99:30 0.00010808
36 *585:D *99:30 9.50342e-06
37 *78:68 *555:B 0
38 *90:59 *99:19 0
*RES
1 *532:X *99:8 4.045 
2 *99:8 *538:C 1.6 
3 *99:8 *99:15 2.865 
4 *99:15 *99:19 6.185 
5 *99:19 *535:A2 3.6 
6 *99:19 *99:30 4.91 
7 *99:30 *555:B 5.305 
8 *99:30 *553:A1 4.465 
9 *99:15 *550:A 4.465 
*END

*D_NET *100 0.00144676
*CONN
*I *534:A2 I *D sky130_fd_sc_hd__o21a_1
*I *533:X O *D sky130_fd_sc_hd__o2111a_1
*CAP
1 *534:A2 0.000694648
2 *533:X 0.000694648
3 *534:A2 *543:A_N 1.92979e-05
4 *534:A2 *543:D 1.92979e-05
5 *534:A2 *103:34 0
6 *534:A2 *103:43 0
7 *534:A2 *112:31 0
8 *534:A1 *534:A2 1.88656e-05
*RES
1 *533:X *534:A2 9.69353 
*END

*D_NET *101 0.00123722
*CONN
*I *539:A1 I *D sky130_fd_sc_hd__a31oi_1
*I *535:X O *D sky130_fd_sc_hd__a21o_1
*CAP
1 *539:A1 0.000349103
2 *535:X 0.000349103
3 *539:A1 *500:A 0.000246488
4 *539:A1 *521:C1 7.35813e-05
5 *539:A1 *115:52 1.7635e-05
6 *90:10 *539:A1 1.56296e-05
7 *90:19 *539:A1 5.02126e-06
8 *90:59 *539:A1 0.000180661
9 *99:19 *539:A1 0
*RES
1 *535:X *539:A1 14.055 
*END

*D_NET *102 0.00271904
*CONN
*I *594:A I *D sky130_fd_sc_hd__clkbuf_16
*I *593:A I *D sky130_fd_sc_hd__clkbuf_16
*I *592:X O *D sky130_fd_sc_hd__clkbuf_16
*CAP
1 *594:A 0.000246195
2 *593:A 0.000535973
3 *592:X 2.08101e-05
4 *102:6 0.000802978
5 *593:A *546:B 4.47209e-05
6 *593:A *132:77 4.82863e-05
7 *552:A1 *593:A 0.000291487
8 *552:A1 *594:A 4.60584e-05
9 *552:B1 *594:A 4.82919e-05
10 *584:D *594:A 0.000236355
11 *60:8 *593:A 8.57024e-05
12 *90:59 *593:A 4.82919e-05
13 *90:59 *594:A 0.00026389
*RES
1 *592:X *102:6 1.96 
2 *102:6 *593:A 10.33 
3 *102:6 *594:A 6.88 
*END

*D_NET *103 0.0124471
*CONN
*I *587:CLK I *D sky130_fd_sc_hd__dfxtp_1
*I *586:CLK I *D sky130_fd_sc_hd__dfxtp_1
*I *595:A I *D sky130_fd_sc_hd__clkinvlp_4
*I *588:CLK I *D sky130_fd_sc_hd__dfxtp_1
*I *589:CLK I *D sky130_fd_sc_hd__dfxtp_1
*I *590:CLK I *D sky130_fd_sc_hd__dfxtp_2
*I *591:CLK I *D sky130_fd_sc_hd__dfxtp_1
*I *583:CLK I *D sky130_fd_sc_hd__dfxtp_1
*I *582:CLK I *D sky130_fd_sc_hd__dfxtp_1
*I *580:CLK I *D sky130_fd_sc_hd__dfxtp_1
*I *593:X O *D sky130_fd_sc_hd__clkbuf_16
*CAP
1 *587:CLK 1.28344e-05
2 *586:CLK 0.000192638
3 *595:A 9.47307e-05
4 *588:CLK 0.00017372
5 *589:CLK 0
6 *590:CLK 2.08101e-05
7 *591:CLK 2.08101e-05
8 *583:CLK 0.00032262
9 *582:CLK 0
10 *580:CLK 0
11 *593:X 0
12 *103:106 0.000609217
13 *103:43 0.000585734
14 *103:34 0.000796142
15 *103:28 0.000873776
16 *103:26 0.00086972
17 *103:18 0.000777106
18 *103:12 0.000572013
19 *103:8 0.000329101
20 *103:6 0.000487955
21 *583:CLK *115:10 0.000235537
22 *586:CLK *620:A 0.00035404
23 *586:CLK *115:52 4.82863e-05
24 *587:CLK *620:A 1.83847e-05
25 *588:CLK *524:A 0
26 *588:CLK *599:A 0.000312182
27 *588:CLK *108:18 0
28 *588:CLK *129:98 0
29 *588:CLK *135:20 0.000302194
30 *595:A *504:D_N 4.66108e-05
31 *595:A *114:62 7.89178e-05
32 *103:8 *557:A1 0.000151432
33 *103:12 *524:A 8.99597e-05
34 *103:12 *524:B 0
35 *103:12 *557:A1 2.92496e-05
36 *103:12 *108:18 0.000283412
37 *103:18 *599:A 0.000129094
38 *103:18 *135:20 1.16578e-05
39 *103:18 *135:24 0.00047194
40 *103:26 *528:C 0.00058455
41 *103:26 *107:10 0.000124007
42 *103:26 *108:18 0.000114748
43 *103:26 *129:40 4.35432e-05
44 *103:26 *133:12 6.9117e-05
45 *103:28 *108:8 8.40213e-05
46 *103:28 *108:18 1.4399e-05
47 *103:106 *557:A1 0.000214977
48 *103:106 *557:B1 0
49 *534:A1 *103:34 0
50 *534:A2 *103:34 0
51 *534:A2 *103:43 0
52 *558:B *103:106 0
53 *562:C1 *103:8 0
54 *562:C1 *103:12 0
55 *562:C1 *103:106 0
56 *566:C *103:26 0.000149504
57 *567:A *103:26 0
58 *583:D *583:CLK 0.000113663
59 *583:D *586:CLK 0.000639577
60 *583:D *587:CLK 2.16917e-05
61 *586:D *586:CLK 5.20335e-05
62 *588:D *588:CLK 9.47454e-05
63 *589:D *103:18 0.00010943
64 *590:D *103:26 7.82691e-05
65 *591:D *103:28 0.000511683
66 *56:40 *103:106 0
67 *89:12 *588:CLK 0
68 *89:22 *103:18 2.24342e-05
69 *90:27 *103:12 0
70 *93:14 *103:18 0.000102931
*RES
1 *593:X *103:6 3.6 
2 *103:6 *103:8 1.89 
3 *103:8 *103:12 5.675 
4 *103:12 *103:18 7.47 
5 *103:18 *103:26 15.4 
6 *103:26 *103:28 6.315 
7 *103:28 *103:34 10.55 
8 *103:34 *580:CLK 3.6 
9 *103:34 *103:43 4.185 
10 *103:43 *582:CLK 3.6 
11 *103:43 *583:CLK 10.335 
12 *103:28 *591:CLK 1.96 
13 *103:26 *590:CLK 1.96 
14 *103:18 *589:CLK 1.6 
15 *103:12 *588:CLK 10.61 
16 *103:8 *595:A 5.43 
17 *103:6 *103:106 8.735 
18 *103:106 *586:CLK 9.985 
19 *103:106 *587:CLK 2.05 
*END

*D_NET *104 0.0127055
*CONN
*I *584:CLK I *D sky130_fd_sc_hd__dfxtp_1
*I *579:CLK I *D sky130_fd_sc_hd__dfxtp_1
*I *502:A I *D sky130_fd_sc_hd__inv_2
*I *585:CLK I *D sky130_fd_sc_hd__dfxtp_1
*I *574:CLK I *D sky130_fd_sc_hd__dfxtp_1
*I *578:CLK I *D sky130_fd_sc_hd__dfxtp_1
*I *577:CLK I *D sky130_fd_sc_hd__dfxtp_1
*I *576:CLK I *D sky130_fd_sc_hd__dfxtp_1
*I *572:CLK I *D sky130_fd_sc_hd__dfxtp_1
*I *575:CLK I *D sky130_fd_sc_hd__dfxtp_1
*I *573:CLK I *D sky130_fd_sc_hd__dfxtp_1
*I *581:CLK I *D sky130_fd_sc_hd__dfxtp_1
*I *594:X O *D sky130_fd_sc_hd__clkbuf_16
*CAP
1 *584:CLK 0
2 *579:CLK 0.000347011
3 *502:A 9.98649e-05
4 *585:CLK 0.000260355
5 *574:CLK 0
6 *578:CLK 8.78708e-05
7 *577:CLK 4.14303e-05
8 *576:CLK 0
9 *572:CLK 2.08101e-05
10 *575:CLK 9.5732e-05
11 *573:CLK 2.08101e-05
12 *581:CLK 0.000403222
13 *594:X 0
14 *104:102 0.00036022
15 *104:100 0.000579923
16 *104:96 0.000337897
17 *104:69 0.000362256
18 *104:60 0.000537852
19 *104:56 0.000838094
20 *104:43 0.000584839
21 *104:30 0.000491224
22 *104:12 0.000625383
23 *104:10 0.00101772
24 *104:4 0.000556693
25 *502:A *493:A 0.000155497
26 *502:A *551:B1 1.12578e-05
27 *502:A *561:B1 0.000182925
28 *502:A *630:A 0.000162311
29 *577:CLK *630:A 2.8185e-05
30 *578:CLK *495:A 0
31 *578:CLK *553:B1 6.73424e-05
32 *579:CLK *497:A 8.40213e-05
33 *579:CLK *498:A 0
34 *579:CLK *521:A1 0.000148571
35 *579:CLK *545:B1 0.000136884
36 *579:CLK *117:45 3.40932e-05
37 *581:CLK *113:10 4.99619e-05
38 *585:CLK *493:A 0.000539443
39 *585:CLK *521:A1 0.000120382
40 *585:CLK *561:B1 0.000541113
41 *585:CLK *620:A 0.000131658
42 *585:CLK *113:23 9.60047e-05
43 *104:10 *498:A 9.54469e-05
44 *104:10 *503:B 0
45 *104:10 *113:10 0
46 *104:10 *113:23 0
47 *104:10 *136:53 0
48 *104:10 *136:118 0
49 *104:12 *113:10 1.16578e-05
50 *104:56 *506:A 0.000164874
51 *104:56 *631:A 0.000134043
52 *104:60 *506:B 0
53 *104:60 *511:A1 0.000362278
54 *104:60 *130:25 0
55 *104:60 *130:36 0
56 *104:69 *511:A1 4.44927e-05
57 *104:69 *515:A1 5.4003e-05
58 *104:69 *553:B1 7.44375e-05
59 *104:69 *130:36 0
60 *104:69 *136:94 0
61 *104:100 *497:A 3.50033e-05
62 *104:100 *498:A 0
63 *104:100 *503:B 0
64 *104:100 *513:A1 0
65 *104:100 *521:C1 7.21296e-06
66 *104:100 *545:B1 0.00013521
67 *507:B1 *104:56 0.000356395
68 *508:B *575:CLK 5.72091e-05
69 *517:A2 *577:CLK 8.49205e-05
70 *519:A2 *578:CLK 9.78798e-05
71 *519:A2 *104:69 1.07797e-05
72 *521:B1 *502:A 9.14035e-05
73 *551:A1 *585:CLK 0
74 *572:D *575:CLK 0
75 *572:D *104:56 1.43717e-05
76 *573:D *104:10 0
77 *573:D *104:12 1.43717e-05
78 *574:D *104:60 4.91189e-05
79 *575:D *575:CLK 4.18603e-06
80 *576:D *104:60 4.18603e-06
81 *576:D *104:69 5.92849e-05
82 *577:D *577:CLK 2.75229e-05
83 *581:D *581:CLK 7.82691e-05
84 *584:D *104:96 9.66021e-05
85 *585:D *585:CLK 0.000113663
86 *604:A *579:CLK 4.82919e-05
87 *79:14 *575:CLK 4.18603e-06
88 *80:94 *104:69 5.47882e-05
89 *80:107 *104:69 0.000160544
*RES
1 *594:X *104:4 1.6 
2 *104:4 *104:10 11.245 
3 *104:10 *104:12 2.865 
4 *104:12 *581:CLK 7.585 
5 *104:12 *573:CLK 1.96 
6 *104:10 *104:30 4.935 
7 *104:30 *575:CLK 7.235 
8 *104:30 *104:43 0.45 
9 *104:43 *572:CLK 1.96 
10 *104:43 *104:56 10.485 
11 *104:56 *104:60 8.225 
12 *104:60 *576:CLK 3.6 
13 *104:60 *104:69 6.225 
14 *104:69 *577:CLK 4.74 
15 *104:69 *578:CLK 5.745 
16 *104:56 *574:CLK 1.6 
17 *104:4 *104:96 2.1 
18 *104:96 *104:100 6.185 
19 *104:100 *104:102 2 
20 *104:102 *585:CLK 15.545 
21 *104:102 *502:A 5.17 
22 *104:100 *579:CLK 9.855 
23 *104:96 *584:CLK 1.6 
*END

*D_NET *105 0.00333218
*CONN
*I *532:A_N I *D sky130_fd_sc_hd__and3b_1
*I *600:A I *D sky130_fd_sc_hd__buf_2
*I *504:C I *D sky130_fd_sc_hd__nor4b_1
*I *524:B I *D sky130_fd_sc_hd__nand2_1
*I *588:Q O *D sky130_fd_sc_hd__dfxtp_1
*CAP
1 *532:A_N 8.23421e-05
2 *600:A 0
3 *504:C 0
4 *524:B 0.000450927
5 *588:Q 0.000168858
6 *105:14 0.000488014
7 *105:12 3.7087e-05
8 *105:10 0.0002512
9 *524:B *505:A 4.55864e-06
10 *524:B *524:A 2.97004e-06
11 *524:B *107:68 6.11912e-05
12 *524:B *129:22 5.8023e-05
13 *532:A_N *525:A 2.15594e-05
14 *532:A_N *601:A 8.53113e-06
15 *532:A_N *114:62 2.49909e-05
16 *532:A_N *129:22 4.51866e-05
17 *532:A_N *134:12 1.93416e-05
18 *532:A_N *136:29 4.66108e-05
19 *105:10 *129:22 8.70268e-05
20 *105:10 *134:12 0.000131485
21 *105:14 *504:B 8.23457e-05
22 *105:14 *134:27 3.57349e-05
23 *539:A2 *105:14 3.38853e-05
24 *562:C1 *524:B 4.10092e-05
25 *592:A *532:A_N 0.000153584
26 *592:A *105:10 0.000297232
27 *79:10 *105:14 4.66108e-05
28 *90:27 *524:B 0.000651878
29 *103:12 *524:B 0
*RES
1 *588:Q *105:10 7.725 
2 *105:10 *105:12 2 
3 *105:12 *105:14 1.14 
4 *105:14 *524:B 9.05527 
5 *105:14 *504:C 1.6 
6 *105:12 *600:A 1.6 
7 *105:10 *532:A_N 5.94 
*END

*D_NET *106 0.00391522
*CONN
*I *599:A I *D sky130_fd_sc_hd__buf_1
*I *598:A I *D sky130_fd_sc_hd__buf_2
*I *589:Q O *D sky130_fd_sc_hd__dfxtp_1
*CAP
1 *599:A 0.000571134
2 *598:A 0.000180089
3 *589:Q 0
4 *106:4 0.000751222
5 *598:A *537:C 0.000199833
6 *598:A *557:A3 0
7 *598:A *108:18 0
8 *598:A *133:116 1.12578e-05
9 *599:A *505:A 0.000160635
10 *599:A *505:C 3.83194e-05
11 *599:A *505:D_N 0.000122331
12 *599:A *134:6 2.59926e-05
13 *599:A *135:20 0.000141974
14 *599:A *136:29 0.00012657
15 *522:B *599:A 0.000375654
16 *549:B *598:A 4.80285e-05
17 *570:B1 *598:A 0.000311282
18 *588:CLK *599:A 0.000312182
19 *80:15 *599:A 0.00012657
20 *91:12 *599:A 0.000124895
21 *91:23 *599:A 0.000152328
22 *93:6 *598:A 5.83121e-06
23 *93:14 *598:A 0
24 *103:18 *599:A 0.000129094
*RES
1 *589:Q *106:4 1.6 
2 *106:4 *598:A 10.1 
3 *106:4 *599:A 16.24 
*END

*D_NET *107 0.0106023
*CONN
*I *554:B I *D sky130_fd_sc_hd__or4_1
*I *546:B I *D sky130_fd_sc_hd__nor2_2
*I *504:A I *D sky130_fd_sc_hd__nor4b_1
*I *505:A I *D sky130_fd_sc_hd__or4b_4
*I *491:A I *D sky130_fd_sc_hd__inv_2
*I *557:A2 I *D sky130_fd_sc_hd__o41a_1
*I *527:B I *D sky130_fd_sc_hd__and2b_1
*I *543:D I *D sky130_fd_sc_hd__and4bb_1
*I *528:B I *D sky130_fd_sc_hd__nand4_1
*I *590:Q O *D sky130_fd_sc_hd__dfxtp_2
*CAP
1 *554:B 0.000267608
2 *546:B 0.00020433
3 *504:A 0
4 *505:A 0.000209458
5 *491:A 0
6 *557:A2 0
7 *527:B 0
8 *543:D 0.000410177
9 *528:B 0
10 *590:Q 0.000105875
11 *107:81 0.000486973
12 *107:68 0.000449241
13 *107:64 0.000523396
14 *107:60 0.000738108
15 *107:53 0.000802766
16 *107:38 0.000520395
17 *107:21 0.000697787
18 *107:10 0.000352695
19 *505:A *505:C 8.49205e-05
20 *505:A *522:A 6.15843e-05
21 *505:A *129:22 6.28988e-05
22 *543:D *543:A_N 8.20536e-05
23 *543:D *109:18 0.000111579
24 *543:D *132:60 8.49205e-05
25 *546:B *132:77 0.000347917
26 *554:B *554:A 6.97118e-05
27 *554:B *554:C 9.03508e-06
28 *554:B *115:52 7.67415e-06
29 *107:10 *528:C 7.23602e-05
30 *107:10 *129:40 7.4027e-05
31 *107:21 *528:C 9.50342e-06
32 *107:21 *528:D 0
33 *107:21 *129:40 4.21314e-05
34 *107:21 *129:46 6.81463e-05
35 *107:21 *132:49 0.000110665
36 *107:21 *135:64 0
37 *107:38 *132:60 7.57202e-05
38 *107:53 *492:A 5.05521e-05
39 *107:53 *531:A_N 2.11536e-05
40 *107:53 *536:A_N 3.07603e-05
41 *107:53 *557:B1 0.00012657
42 *107:53 *109:18 6.90876e-05
43 *107:53 *114:62 0.000114492
44 *107:53 *115:52 0.000158408
45 *107:53 *132:60 0.000394744
46 *107:53 *133:91 1.44947e-05
47 *107:53 *135:99 0.000104229
48 *107:60 *557:A1 0.000161829
49 *107:60 *557:B1 3.66286e-05
50 *107:60 *115:52 6.408e-05
51 *107:68 *504:D_N 5.53813e-05
52 *107:81 *504:B 3.09774e-05
53 *107:81 *504:D_N 7.58602e-05
54 *107:81 *537:A 4.82863e-05
55 *107:81 *537:C 0.000234674
56 *524:B *505:A 4.55864e-06
57 *524:B *107:68 6.11912e-05
58 *533:A1 *107:53 0.000382758
59 *534:A2 *543:D 1.92979e-05
60 *539:A2 *107:81 1.03323e-05
61 *543:C *543:D 4.65515e-05
62 *544:A2 *543:D 0.000157707
63 *554:D *554:B 5.6361e-05
64 *554:D *107:64 0
65 *560:A3 *107:53 8.57024e-05
66 *562:C1 *554:B 0.000150653
67 *562:C1 *107:60 8.49205e-05
68 *562:C1 *107:64 0.000101673
69 *562:C1 *107:68 0.000149919
70 *593:A *546:B 4.47209e-05
71 *599:A *505:A 0.000160635
72 *89:36 *107:21 2.54692e-05
73 *89:42 *543:D 0
74 *89:83 *107:64 0
75 *91:32 *107:68 0
76 *103:26 *107:10 0.000124007
*RES
1 *590:Q *107:10 5.61 
2 *107:10 *528:B 3.6 
3 *107:10 *107:21 7.205 
4 *107:21 *543:D 12.77 
5 *107:21 *107:38 0.795 
6 *107:38 *527:B 1.6 
7 *107:38 *107:53 16.675 
8 *107:53 *557:A2 1.6 
9 *107:53 *107:60 5.625 
10 *107:60 *107:64 4.655 
11 *107:64 *107:68 5.93 
12 *107:68 *491:A 1.6 
13 *107:68 *107:81 5.415 
14 *107:81 *505:A 9.68 
15 *107:81 *504:A 1.6 
16 *107:64 *546:B 7.86 
17 *107:60 *554:B 6.205 
*END

*D_NET *108 0.00814921
*CONN
*I *597:A I *D sky130_fd_sc_hd__clkbuf_2
*I *557:A1 I *D sky130_fd_sc_hd__o41a_1
*I *504:D_N I *D sky130_fd_sc_hd__nor4b_1
*I *591:Q O *D sky130_fd_sc_hd__dfxtp_1
*CAP
1 *597:A 6.4822e-05
2 *557:A1 0.000300104
3 *504:D_N 0.000531482
4 *591:Q 6.22102e-05
5 *108:18 0.00251715
6 *108:8 0.00181259
7 *504:D_N *524:A 0
8 *504:D_N *537:A 2.75145e-05
9 *504:D_N *537:C 0.00015896
10 *504:D_N *114:62 9.28781e-05
11 *557:A1 *557:A3 0
12 *557:A1 *115:52 0.000161829
13 *597:A *132:14 4.66108e-05
14 *108:18 *524:A 1.37856e-05
15 *108:18 *557:A3 0
16 *108:18 *565:A2 1.61831e-05
17 *108:18 *129:24 6.45631e-05
18 *108:18 *129:40 0.000513652
19 *108:18 *129:98 3.18219e-05
20 *537:B *504:D_N 0.000124895
21 *539:A2 *504:D_N 8.65961e-05
22 *549:C_N *557:A1 0
23 *558:B *557:A1 0
24 *588:CLK *108:18 0
25 *590:D *597:A 3.86607e-05
26 *590:D *108:18 6.16467e-05
27 *591:D *597:A 8.5242e-05
28 *591:D *108:18 4.9968e-05
29 *595:A *504:D_N 4.66108e-05
30 *598:A *108:18 0
31 *89:42 *597:A 8.53113e-06
32 *91:23 *504:D_N 1.88218e-05
33 *91:32 *504:D_N 2.67753e-05
34 *103:8 *557:A1 0.000151432
35 *103:12 *557:A1 2.92496e-05
36 *103:12 *108:18 0.000283412
37 *103:26 *108:18 0.000114748
38 *103:28 *108:8 8.40213e-05
39 *103:28 *108:18 1.4399e-05
40 *103:106 *557:A1 0.000214977
41 *107:60 *557:A1 0.000161829
42 *107:68 *504:D_N 5.53813e-05
43 *107:81 *504:D_N 7.58602e-05
*RES
1 *591:Q *108:8 4.395 
2 *108:8 *108:18 28.27 
3 *108:18 *504:D_N 16.615 
4 *108:18 *557:A1 10.815 
5 *108:8 *597:A 5.175 
*END

*D_NET *109 0.00862854
*CONN
*I *543:A_N I *D sky130_fd_sc_hd__and4bb_1
*I *549:A I *D sky130_fd_sc_hd__or3b_1
*I *501:A I *D sky130_fd_sc_hd__inv_2
*I *610:X O *D sky130_fd_sc_hd__buf_1
*CAP
1 *543:A_N 0.000127753
2 *549:A 0.000126209
3 *501:A 0.000126187
4 *610:X 0.0021912
5 *109:18 0.000702021
6 *109:12 0.00276858
7 *501:A *557:A3 0
8 *501:A *135:99 3.50033e-05
9 *543:A_N *541:C_N 4.84393e-05
10 *543:A_N *129:46 4.39734e-05
11 *543:A_N *129:55 5.65627e-05
12 *549:A *114:62 0.000349592
13 *109:12 *112:25 6.67968e-05
14 *109:18 *114:62 6.38806e-05
15 *109:18 *129:46 7.44453e-05
16 *109:18 *132:60 0.000497676
17 *533:A1 *501:A 0.000139245
18 *533:A1 *109:18 1.12578e-05
19 *534:A2 *543:A_N 1.92979e-05
20 *534:B1 *109:12 0.000502803
21 *543:D *543:A_N 8.20536e-05
22 *543:D *109:18 0.000111579
23 *544:A1 *109:12 1.3739e-05
24 *544:A2 *543:A_N 3.686e-05
25 *544:A2 *109:12 0.00012657
26 *544:A3 *109:12 1.46828e-05
27 *549:B *501:A 0
28 *549:C_N *549:A 0.000121437
29 *580:D *109:12 0.000101614
30 *89:42 *109:18 0
31 *107:53 *109:18 6.90876e-05
*RES
1 *610:X *109:12 30.735 
2 *109:12 *109:18 11.675 
3 *109:18 *501:A 8 
4 *109:18 *549:A 5.17 
5 *109:12 *543:A_N 6.765 
*END

*D_NET *110 0.00512183
*CONN
*I *613:A I *D sky130_fd_sc_hd__buf_2
*I *520:A I *D sky130_fd_sc_hd__or2_1
*I *579:Q O *D sky130_fd_sc_hd__dfxtp_1
*CAP
1 *613:A 0.00100728
2 *520:A 0.000128986
3 *579:Q 0
4 *110:4 0.00113626
5 *520:A *579:D 0
6 *520:A *630:A 0.000163199
7 *520:A *116:10 0.000136877
8 *520:A *116:29 4.44927e-05
9 *520:A *117:45 3.83895e-05
10 *613:A *494:A 0.00012657
11 *613:A *551:B1 2.31329e-05
12 *613:A *627:A 0.000151888
13 *613:A *628:A 0.00078458
14 *613:A *629:A 2.50602e-05
15 *613:A *637:A 0.00062029
16 *613:A *126:6 4.82863e-05
17 *613:A *151:10 0.000507936
18 *520:B *520:A 4.82919e-05
19 *578:D *613:A 0.000130317
*RES
1 *579:Q *110:4 1.6 
2 *110:4 *520:A 9.23 
3 *110:4 *613:A 25.225 
*END

*D_NET *111 0.00810368
*CONN
*I *614:A I *D sky130_fd_sc_hd__buf_2
*I *602:A I *D sky130_fd_sc_hd__dlygate4sd3_1
*I *596:A I *D sky130_fd_sc_hd__clkbuf_2
*I *571:Q O *D sky130_fd_sc_hd__dfxtp_1
*CAP
1 *614:A 0.0016192
2 *602:A 0
3 *596:A 0.00117827
4 *571:Q 3.96854e-05
5 *111:10 0.00124476
6 *111:8 0.00172537
7 *596:A *511:A1 0.000417487
8 *596:A *114:62 0.000249824
9 *614:A *503:A_N 0
10 *614:A *553:B1 0.000511468
11 *614:A *629:A 0
12 *614:A *630:A 0
13 *111:8 *553:B1 4.39911e-06
14 *111:10 *503:A_N 0
15 adc_out[5] *614:A 0
16 adc_out[6] *614:A 0
17 *517:B1 *614:A 0.000107424
18 *520:B *596:A 0.000206137
19 *520:B *614:A 9.84957e-05
20 *520:B *111:10 0.000141592
21 *550:A *596:A 0.000306433
22 *550:B *596:A 4.99619e-05
23 *99:15 *596:A 0.000203178
*RES
1 *571:Q *111:8 4.05 
2 *111:8 *111:10 1.635 
3 *111:10 *596:A 25.77 
4 *111:10 *602:A 3.6 
5 *111:8 *614:A 35.185 
*END

*D_NET *112 0.0178801
*CONN
*I *530:B1 I *D sky130_fd_sc_hd__o21a_1
*I *507:A1 I *D sky130_fd_sc_hd__o211a_1
*I *500:A I *D sky130_fd_sc_hd__inv_2
*I *615:A I *D sky130_fd_sc_hd__buf_2
*I *580:Q O *D sky130_fd_sc_hd__dfxtp_1
*CAP
1 *530:B1 0
2 *507:A1 0.00167732
3 *500:A 0.000470058
4 *615:A 0.00116019
5 *580:Q 0
6 *112:31 0.00448484
7 *112:25 0.00328593
8 *112:4 0.00210866
9 *500:A *521:C1 0
10 *500:A *535:B1 0
11 *500:A *545:B1 0
12 *500:A *115:52 1.88904e-05
13 *500:A *119:23 0.000124895
14 *500:A *134:27 0
15 *615:A *113:25 0.000343759
16 *534:A1 *112:25 0.000290934
17 *534:A2 *112:31 0
18 *534:B1 *112:25 4.97815e-05
19 *538:A *500:A 0.000542768
20 *538:B *500:A 1.15688e-05
21 *539:A1 *500:A 0.000246488
22 *539:A3 *500:A 0.000113821
23 *544:A3 *112:25 0
24 *547:B1 *500:A 0
25 *556:A3 *500:A 3.39052e-05
26 *570:A2 *112:25 9.50342e-06
27 *570:A2 *112:31 4.18203e-05
28 *580:D *112:25 0.00030262
29 *611:A *615:A 3.95724e-05
30 *60:57 *500:A 0.000124895
31 *76:14 *112:31 0.000590765
32 *80:39 *507:A1 0
33 *80:73 *507:A1 0.000342804
34 *80:81 *507:A1 3.82072e-05
35 *89:42 *112:25 0
36 *90:27 *507:A1 0.000179204
37 *90:27 *112:31 0.00118015
38 *109:12 *112:25 6.67968e-05
*RES
1 *580:Q *112:4 1.6 
2 *112:4 *615:A 25.295 
3 *112:4 *112:25 15.77 
4 *112:25 *112:31 6.32777 
5 *112:31 *500:A 15.6725 
6 *112:31 *507:A1 7.9467 
7 *112:25 *530:B1 3.6 
*END

*D_NET *113 0.011851
*CONN
*I *499:A I *D sky130_fd_sc_hd__inv_2
*I *616:A I *D sky130_fd_sc_hd__buf_2
*I *509:A1 I *D sky130_fd_sc_hd__o211a_1
*I *581:Q O *D sky130_fd_sc_hd__dfxtp_1
*CAP
1 *499:A 2.08101e-05
2 *616:A 2.08101e-05
3 *509:A1 0
4 *581:Q 9.91979e-05
5 *113:25 0.00287069
6 *113:23 0.00411652
7 *113:10 0.00134503
8 *113:23 *498:A 0
9 *113:23 *118:36 0.000339053
10 *113:25 *617:A 4.77719e-05
11 *113:25 *618:A 0.000239807
12 *113:25 *619:A 0.000420353
13 *113:25 *118:25 0.000239813
14 *113:25 *118:36 0.00137378
15 dac_in[2] *113:25 0.000124471
16 *509:B1 *113:10 6.47594e-05
17 *550:B *113:23 0
18 *573:D *113:10 2.67022e-05
19 *581:CLK *113:10 4.99619e-05
20 *585:CLK *113:23 9.60047e-05
21 *615:A *113:25 0.000343759
22 *104:10 *113:10 0
23 *104:10 *113:23 0
24 *104:12 *113:10 1.16578e-05
*RES
1 *581:Q *113:10 5.43 
2 *113:10 *509:A1 3.6 
3 *113:10 *113:23 22.175 
4 *113:23 *113:25 50.13 
5 *113:25 *616:A 1.96 
6 *113:23 *499:A 1.96 
*END

*D_NET *114 0.0170436
*CONN
*I *511:A1 I *D sky130_fd_sc_hd__o211a_1
*I *498:A I *D sky130_fd_sc_hd__inv_2
*I *540:B1 I *D sky130_fd_sc_hd__o41a_1
*I *617:A I *D sky130_fd_sc_hd__buf_2
*I *582:Q O *D sky130_fd_sc_hd__dfxtp_1
*CAP
1 *511:A1 0.0010646
2 *498:A 0.000509179
3 *540:B1 0.000107084
4 *617:A 0.000330459
5 *582:Q 0.000172569
6 *114:62 0.00332792
7 *114:35 0.00337014
8 *114:6 0.00201194
9 *498:A *503:B 0
10 *498:A *626:A 0
11 *540:B1 *533:C1 4.66108e-05
12 *540:B1 *540:A3 4.66108e-05
13 *114:35 *536:A_N 0.00020653
14 *114:35 *541:A 4.80285e-05
15 *114:35 *541:B 6.46283e-05
16 *114:35 *115:52 0
17 *114:35 *132:60 5.4003e-05
18 *114:35 *133:91 2.69493e-05
19 *114:62 *522:A 3.70009e-05
20 *114:62 *601:A 4.66742e-05
21 *114:62 *129:12 6.43122e-05
22 *114:62 *129:16 6.07575e-06
23 *114:62 *132:77 9.02174e-05
24 *114:62 *135:99 0.000114492
25 *114:62 *136:29 8.23444e-05
26 *504:D_N *114:62 9.28781e-05
27 *511:A2 *511:A1 0.000139238
28 *532:A_N *114:62 2.49909e-05
29 *533:A1 *114:62 8.40269e-05
30 *533:A2 *540:B1 1.82682e-05
31 *540:A4 *540:B1 6.3573e-05
32 *540:A4 *114:62 1.19928e-05
33 *542:A *114:35 0.000237243
34 *542:B *114:35 3.23663e-05
35 *549:A *114:62 0.000349592
36 *549:C_N *114:62 6.6564e-05
37 *550:A *114:62 0.000154289
38 *550:B *114:62 2.75229e-05
39 *552:A1 *114:62 0.00113602
40 *552:A2 *114:62 0.000124895
41 *559:A1 *114:35 0.000155948
42 *559:C1 *114:35 2.35349e-05
43 *579:CLK *498:A 0
44 *582:D *114:35 0.000334339
45 *595:A *114:62 7.89178e-05
46 *596:A *511:A1 0.000417487
47 *596:A *114:62 0.000249824
48 *56:25 *114:35 1.96098e-05
49 *80:94 *511:A1 0.000273702
50 *98:10 *114:35 5.51796e-05
51 *99:8 *114:62 0.000193801
52 *99:15 *114:62 0.000121103
53 *104:10 *498:A 9.54469e-05
54 *104:60 *511:A1 0.000362278
55 *104:69 *511:A1 4.44927e-05
56 *104:100 *498:A 0
57 *107:53 *114:62 0.000114492
58 *109:18 *114:62 6.38806e-05
59 *113:23 *498:A 0
60 *113:25 *617:A 4.77719e-05
*RES
1 *582:Q *114:6 3.43 
2 *114:6 *617:A 11 
3 *114:6 *114:35 26.905 
4 *114:35 *540:B1 3.7 
5 *114:35 *114:62 39.295 
6 *114:62 *498:A 13.355 
7 *114:62 *511:A1 25.235 
*END

*D_NET *115 0.0152057
*CONN
*I *618:A I *D sky130_fd_sc_hd__buf_2
*I *513:A1 I *D sky130_fd_sc_hd__o211a_1
*I *497:A I *D sky130_fd_sc_hd__inv_2
*I *583:Q O *D sky130_fd_sc_hd__dfxtp_1
*CAP
1 *618:A 0.00023503
2 *513:A1 0.000561552
3 *497:A 0.000140713
4 *583:Q 0.000462442
5 *115:54 0.000941441
6 *115:52 0.00277684
7 *115:10 0.00323514
8 *497:A *521:A1 8.40213e-05
9 *497:A *521:C1 0.000372579
10 *497:A *545:B1 0.000263563
11 *497:A *626:A 5.16348e-05
12 *513:A1 *503:A_N 8.23457e-05
13 *513:A1 *503:B 9.37731e-05
14 *513:A1 *521:C1 6.58781e-05
15 *115:52 *492:A 8.65961e-05
16 *115:52 *521:C1 0.000332924
17 *115:52 *525:A 8.40269e-05
18 *115:52 *525:C 1.70906e-05
19 *115:52 *531:A_N 5.53632e-05
20 *115:52 *541:B 0
21 *115:52 *554:A 6.90876e-05
22 *115:52 *554:C 7.67415e-06
23 *115:52 *557:A3 2.75145e-05
24 *115:52 *557:B1 4.01869e-05
25 *115:52 *133:91 0.000160849
26 *115:54 *503:A_N 8.49205e-05
27 *115:54 *521:C1 0.00118203
28 *115:54 *545:B1 0.000444215
29 *500:A *115:52 1.88904e-05
30 *513:A2 *513:A1 8.41703e-06
31 *513:B1 *513:A1 3.08098e-05
32 *521:A2 *513:A1 0.000155185
33 *539:A1 *115:52 1.7635e-05
34 *551:A1 *115:52 1.42916e-05
35 *554:B *115:52 7.67415e-06
36 *554:D *115:52 0.000270415
37 *556:A2 *115:52 0.000128398
38 *556:B1 *115:52 3.79595e-05
39 *557:A1 *115:52 0.000161829
40 *559:A1 *115:52 0
41 *560:A1 *115:52 0
42 *562:C1 *115:52 9.51192e-05
43 *579:CLK *497:A 8.40213e-05
44 *583:CLK *115:10 0.000235537
45 *583:D *115:10 0.000150292
46 *583:D *115:52 0.00119465
47 *586:CLK *115:52 4.82863e-05
48 *586:D *115:52 3.39064e-05
49 *79:36 *513:A1 1.59999e-05
50 *90:27 *115:52 0
51 *99:19 *115:52 3.96263e-05
52 *104:100 *497:A 3.50033e-05
53 *104:100 *513:A1 0
54 *107:53 *115:52 0.000158408
55 *107:60 *115:52 6.408e-05
56 *113:25 *618:A 0.000239807
57 *114:35 *115:52 0
*RES
1 *583:Q *115:10 9.84 
2 *115:10 *115:52 49.3007 
3 *115:52 *115:54 10.8 
4 *115:54 *497:A 10.835 
5 *115:54 *513:A1 19.0125 
6 *115:10 *618:A 8.175 
*END

*D_NET *116 0.0114092
*CONN
*I *515:A1 I *D sky130_fd_sc_hd__o211a_1
*I *619:A I *D sky130_fd_sc_hd__buf_2
*I *496:A I *D sky130_fd_sc_hd__inv_2
*I *584:Q O *D sky130_fd_sc_hd__dfxtp_1
*CAP
1 *515:A1 0.000294656
2 *619:A 0.00142608
3 *496:A 0
4 *584:Q 0.000319617
5 *116:29 0.00391396
6 *116:10 0.00286924
7 *116:6 0.000995637
8 *515:A1 *515:C1 2.75229e-05
9 *619:A *118:25 9.93004e-05
10 *619:A *118:36 0.000242196
11 *116:10 *519:C1 0
12 *116:10 *136:83 0
13 *116:10 *136:94 0
14 *116:29 *519:C1 0
15 *116:29 *120:14 0.00038879
16 dac_in[7] *116:29 0.000106784
17 dac_in_n[4] *116:29 0
18 *520:A *116:10 0.000136877
19 *520:A *116:29 4.44927e-05
20 *520:B *116:10 0
21 *80:94 *515:A1 5.4003e-05
22 *80:107 *515:A1 1.56428e-05
23 *104:69 *515:A1 5.4003e-05
24 *113:25 *619:A 0.000420353
*RES
1 *584:Q *116:6 5.845 
2 *116:6 *116:10 8.48 
3 *116:10 *496:A 3.6 
4 *116:10 *116:29 43.14 
5 *116:29 *619:A 20.86 
6 *116:6 *515:A1 10.115 
*END

*D_NET *117 0.0109836
*CONN
*I *517:A1 I *D sky130_fd_sc_hd__o211a_1
*I *495:A I *D sky130_fd_sc_hd__inv_2
*I *620:A I *D sky130_fd_sc_hd__buf_2
*I *585:Q O *D sky130_fd_sc_hd__dfxtp_1
*CAP
1 *517:A1 5.23409e-05
2 *495:A 6.66716e-05
3 *620:A 0.00240075
4 *585:Q 0
5 *117:45 0.00133675
6 *117:4 0.00361848
7 *495:A *519:C1 4.31189e-05
8 *495:A *553:B1 4.94404e-05
9 *495:A *627:A 5.16418e-05
10 *517:A1 *630:A 0.000122337
11 *620:A *493:A 1.34503e-05
12 *620:A *521:A1 3.1333e-05
13 *620:A *119:23 0.000994494
14 *117:45 *517:C1 4.82919e-05
15 *117:45 *521:A1 0.000350099
16 *117:45 *625:A 0.000164874
17 *117:45 *626:A 0
18 *117:45 *630:A 0.000633979
19 *517:A2 *517:A1 3.70572e-05
20 *517:A2 *117:45 0
21 *520:A *117:45 3.83895e-05
22 *520:B *117:45 1.83847e-05
23 *521:A2 *117:45 2.06083e-05
24 *562:B1 *620:A 0.000137943
25 *578:CLK *495:A 0
26 *579:CLK *117:45 3.40932e-05
27 *583:D *620:A 1.48694e-05
28 *585:CLK *620:A 0.000131658
29 *585:D *620:A 8.76599e-05
30 *586:CLK *620:A 0.00035404
31 *587:CLK *620:A 1.83847e-05
32 *587:D *620:A 3.51254e-06
33 *604:A *117:45 6.02123e-05
34 *56:40 *620:A 4.87317e-05
*RES
1 *585:Q *117:4 1.6 
2 *117:4 *620:A 38.975 
3 *117:4 *117:45 24.175 
4 *117:45 *495:A 7.235 
5 *117:45 *517:A1 3.1 
*END

*D_NET *118 0.010256
*CONN
*I *494:A I *D sky130_fd_sc_hd__inv_2
*I *519:A1 I *D sky130_fd_sc_hd__o211a_1
*I *621:A I *D sky130_fd_sc_hd__buf_2
*I *557:B1 I *D sky130_fd_sc_hd__o41a_1
*I *586:Q O *D sky130_fd_sc_hd__dfxtp_1
*CAP
1 *494:A 0.000430572
2 *519:A1 1.88809e-05
3 *621:A 0
4 *557:B1 0.000338672
5 *586:Q 0
6 *118:36 0.00233238
7 *118:25 0.00205181
8 *118:6 0.000507559
9 *494:A *518:A 0.000318091
10 *494:A *628:A 0.000211311
11 *557:B1 *557:A3 4.82863e-05
12 *118:36 *519:C1 0.00011577
13 *118:36 *535:B1 0.000165698
14 *118:36 *624:A 7.35729e-05
15 *118:36 *626:A 0.000546246
16 dac_in_n[2] *118:36 4.29016e-05
17 dac_in_n[3] *118:36 3.23663e-05
18 dac_in_n[5] *494:A 7.81829e-05
19 *519:B1 *494:A 0.000134314
20 *519:B1 *519:A1 5.4155e-06
21 *519:B1 *118:36 4.92062e-05
22 *558:B *557:B1 5.99757e-05
23 *560:A1 *557:B1 0
24 *613:A *494:A 0.00012657
25 *619:A *118:25 9.93004e-05
26 *619:A *118:36 0.000242196
27 *56:25 *557:B1 7.06865e-05
28 *78:40 *557:B1 0
29 *103:106 *557:B1 0
30 *107:53 *557:B1 0.00012657
31 *107:60 *557:B1 3.66286e-05
32 *113:23 *118:36 0.000339053
33 *113:25 *118:25 0.000239813
34 *113:25 *118:36 0.00137378
35 *115:52 *557:B1 4.01869e-05
*RES
1 *586:Q *118:6 3.6 
2 *118:6 *557:B1 9.885 
3 *118:6 *118:25 6.065 
4 *118:25 *621:A 1.6 
5 *118:25 *118:36 41.625 
6 *118:36 *519:A1 1.96 
7 *118:36 *494:A 15.545 
*END

*D_NET *119 0.00531143
*CONN
*I *493:A I *D sky130_fd_sc_hd__inv_2
*I *603:A I *D sky130_fd_sc_hd__dlygate4sd3_1
*I *622:A I *D sky130_fd_sc_hd__buf_2
*I *587:Q O *D sky130_fd_sc_hd__dfxtp_1
*CAP
1 *493:A 0.000455724
2 *603:A 0
3 *622:A 0.000110159
4 *587:Q 0
5 *119:23 0.000686245
6 *119:4 0.00034068
7 *493:A *535:B1 0
8 *493:A *551:B1 0.000498947
9 *493:A *561:B1 0.0002525
10 *622:A *120:20 0
11 *119:23 *561:B1 5.27201e-05
12 dac_in[7] *622:A 4.31921e-05
13 *500:A *119:23 0.000124895
14 *502:A *493:A 0.000155497
15 *551:A2 *493:A 4.82919e-05
16 *553:A1 *493:A 0.000275553
17 *556:A1 *493:A 4.47209e-05
18 *556:B1 *493:A 4.82863e-05
19 *562:B1 *119:23 0.000172785
20 *585:CLK *493:A 0.000539443
21 *585:D *493:A 9.21865e-05
22 *585:D *119:23 2.0514e-05
23 *620:A *493:A 1.34503e-05
24 *620:A *119:23 0.000994494
25 *60:49 *119:23 8.09761e-05
26 *60:57 *119:23 0.000231885
27 *99:30 *493:A 2.82887e-05
*RES
1 *587:Q *119:4 1.6 
2 *119:4 *622:A 7.49 
3 *119:4 *119:23 10.59 
4 *119:23 *603:A 1.6 
5 *119:23 *493:A 20.36 
*END

*D_NET *120 0.0166453
*CONN
*I *521:C1 I *D sky130_fd_sc_hd__o211a_1
*I *601:A I *D sky130_fd_sc_hd__buf_2
*I *611:X O *D sky130_fd_sc_hd__buf_1
*CAP
1 *521:C1 0.0012672
2 *601:A 0.000153417
3 *611:X 6.0288e-05
4 *120:20 0.00189938
5 *120:14 0.00473141
6 *120:10 0.00431293
7 *521:C1 *503:B 3.68784e-05
8 *521:C1 *525:A 4.82919e-05
9 *521:C1 *535:B1 8.53113e-06
10 *521:C1 *545:B1 1.6408e-05
11 *521:C1 *554:C 7.35813e-05
12 *521:C1 *571:CLK 3.18137e-05
13 *521:C1 *134:40 3.90495e-05
14 *601:A *525:A 0.000333496
15 *601:A *525:C 3.98952e-05
16 *601:A *136:29 8.57024e-05
17 *120:20 *623:A 0
18 *120:20 *134:40 0
19 dac_in[0] *120:10 0
20 dac_in[7] *120:20 0
21 *497:A *521:C1 0.000372579
22 *500:A *521:C1 0
23 *513:A1 *521:C1 6.58781e-05
24 *521:A2 *521:C1 1.89097e-05
25 *521:B1 *521:C1 7.55391e-05
26 *532:A_N *601:A 8.53113e-06
27 *535:A1 *521:C1 0.000345832
28 *539:A1 *521:C1 7.35813e-05
29 *545:A2 *120:20 0
30 *547:A1 *120:20 4.88555e-05
31 *547:A2 *120:20 4.67276e-05
32 *547:B1 *120:20 5.65627e-05
33 *547:B2 *120:20 0
34 *552:A1 *601:A 0.00011852
35 *556:A2 *120:20 2.05571e-05
36 *592:A *601:A 4.40006e-05
37 *622:A *120:20 0
38 *56:44 *120:20 3.90531e-05
39 *60:42 *120:20 0
40 *92:12 *120:20 0
41 *94:31 *120:20 5.35968e-05
42 *94:43 *521:C1 0.000160635
43 *94:43 *120:20 0
44 *99:19 *521:C1 0
45 *104:100 *521:C1 7.21296e-06
46 *114:62 *601:A 4.66742e-05
47 *115:52 *521:C1 0.000332924
48 *115:54 *521:C1 0.00118203
49 *116:29 *120:14 0.00038879
*RES
1 *611:X *120:10 6.47 
2 *120:10 *120:14 49.025 
3 *120:14 *120:20 8.31 
4 *120:20 *601:A 8.58 
5 *120:20 *521:C1 35.75 
*END

*D_NET *121 0.000218119
*CONN
*I *623:A I *D sky130_fd_sc_hd__buf_2
*I *500:Y O *D sky130_fd_sc_hd__inv_2
*CAP
1 *623:A 0.00010906
2 *500:Y 0.00010906
3 *623:A *535:B1 0
4 *120:20 *623:A 0
*RES
1 *500:Y *623:A 8.835 
*END

*D_NET *122 0.00176491
*CONN
*I *624:A I *D sky130_fd_sc_hd__buf_2
*I *535:B1 I *D sky130_fd_sc_hd__a21o_1
*I *499:Y O *D sky130_fd_sc_hd__inv_2
*CAP
1 *624:A 0.000131087
2 *535:B1 0.000496511
3 *499:Y 0
4 *122:4 0.000627598
5 *535:B1 *545:B1 4.56464e-05
6 *493:A *535:B1 0
7 *500:A *535:B1 0
8 *521:C1 *535:B1 8.53113e-06
9 *556:A2 *535:B1 6.34884e-05
10 *556:A3 *535:B1 0
11 *585:D *535:B1 4.94404e-05
12 *623:A *535:B1 0
13 *60:57 *535:B1 6.72556e-05
14 *99:19 *535:B1 4.18603e-06
15 *99:30 *535:B1 3.18907e-05
16 *118:36 *535:B1 0.000165698
17 *118:36 *624:A 7.35729e-05
*RES
1 *499:Y *122:4 1.6 
2 *122:4 *535:B1 13.835 
3 *122:4 *624:A 7.61 
*END

*D_NET *123 0.000654776
*CONN
*I *625:A I *D sky130_fd_sc_hd__buf_2
*I *498:Y O *D sky130_fd_sc_hd__inv_2
*CAP
1 *625:A 0.000175328
2 *498:Y 0.000175328
3 *625:A *626:A 0.000139245
4 *117:45 *625:A 0.000164874
*RES
1 *498:Y *625:A 10.32 
*END

*D_NET *124 0.00553812
*CONN
*I *626:A I *D sky130_fd_sc_hd__buf_2
*I *545:B1 I *D sky130_fd_sc_hd__a21oi_1
*I *497:Y O *D sky130_fd_sc_hd__inv_2
*CAP
1 *626:A 0.000359485
2 *545:B1 0.000763102
3 *497:Y 0
4 *124:6 0.00112259
5 *545:B1 *503:A_N 2.75229e-05
6 *545:B1 *553:B1 0.000954762
7 dac_in_n[2] *626:A 2.75229e-05
8 dac_in_n[3] *626:A 7.00889e-06
9 *497:A *545:B1 0.000263563
10 *497:A *626:A 5.16348e-05
11 *498:A *626:A 0
12 *500:A *545:B1 0
13 *521:C1 *545:B1 1.6408e-05
14 *535:A1 *545:B1 0.000200615
15 *535:B1 *545:B1 4.56464e-05
16 *548:A1 *545:B1 7.00889e-06
17 *555:A *545:B1 0.000122331
18 *555:B *545:B1 1.19928e-05
19 *556:A3 *545:B1 8.27336e-05
20 *579:CLK *545:B1 0.000136884
21 *625:A *626:A 0.000139245
22 *78:68 *545:B1 7.24019e-05
23 *104:100 *545:B1 0.00013521
24 *115:54 *545:B1 0.000444215
25 *117:45 *626:A 0
26 *118:36 *626:A 0.000546246
*RES
1 *497:Y *124:6 3.6 
2 *124:6 *545:B1 28.6 
3 *124:6 *626:A 11.445 
*END

*D_NET *125 0.00474907
*CONN
*I *627:A I *D sky130_fd_sc_hd__buf_2
*I *551:B1 I *D sky130_fd_sc_hd__a21o_1
*I *496:Y O *D sky130_fd_sc_hd__inv_2
*CAP
1 *627:A 0.00026333
2 *551:B1 0.00130785
3 *496:Y 0
4 *125:4 0.00157118
5 *551:B1 *579:D 0.000117297
6 *627:A *519:C1 0.000252289
7 *493:A *551:B1 0.000498947
8 *495:A *627:A 5.16418e-05
9 *502:A *551:B1 1.12578e-05
10 *519:A2 *627:A 0
11 *521:B1 *551:B1 0.000500245
12 *613:A *551:B1 2.31329e-05
13 *613:A *627:A 0.000151888
*RES
1 *496:Y *125:4 1.6 
2 *125:4 *551:B1 22.82 
3 *125:4 *627:A 10.685 
*END

*D_NET *126 0.00843526
*CONN
*I *628:A I *D sky130_fd_sc_hd__buf_2
*I *553:B1 I *D sky130_fd_sc_hd__a21o_1
*I *495:Y O *D sky130_fd_sc_hd__inv_2
*CAP
1 *628:A 0.000714647
2 *553:B1 0.00178227
3 *495:Y 3.38751e-05
4 *126:6 0.0025308
5 *553:B1 *503:A_N 0.000207637
6 *553:B1 *503:B 4.82863e-05
7 *553:B1 *561:B1 2.85364e-05
8 *553:B1 *136:94 0
9 *628:A *518:B 0
10 *628:A *606:A 4.99619e-05
11 *628:A *629:A 0
12 dac_in_n[5] *628:A 5.05521e-05
13 *494:A *628:A 0.000211311
14 *495:A *553:B1 4.94404e-05
15 *517:B1 *553:B1 0.000189886
16 *545:B1 *553:B1 0.000954762
17 *550:B *553:B1 2.04262e-05
18 *552:A3 *553:B1 7.23602e-05
19 *556:B1 *553:B1 0
20 *578:CLK *553:B1 6.73424e-05
21 *613:A *628:A 0.00078458
22 *613:A *126:6 4.82863e-05
23 *614:A *553:B1 0.000511468
24 *104:69 *553:B1 7.44375e-05
25 *111:8 *553:B1 4.39911e-06
*RES
1 *495:Y *126:6 2.05 
2 *126:6 *553:B1 36.015 
3 *126:6 *628:A 22.245 
*END

*D_NET *127 0.000705438
*CONN
*I *629:A I *D sky130_fd_sc_hd__buf_2
*I *494:Y O *D sky130_fd_sc_hd__inv_2
*CAP
1 *629:A 0.00029863
2 *494:Y 0.00029863
3 *629:A *606:A 0
4 *629:A *637:A 8.31173e-05
5 *613:A *629:A 2.50602e-05
6 *614:A *629:A 0
7 *628:A *629:A 0
*RES
1 *494:Y *629:A 11.355 
*END

*D_NET *128 0.0116361
*CONN
*I *630:A I *D sky130_fd_sc_hd__buf_2
*I *561:B1 I *D sky130_fd_sc_hd__a21oi_1
*I *493:Y O *D sky130_fd_sc_hd__inv_2
*CAP
1 *630:A 0.00214194
2 *561:B1 0.0013422
3 *493:Y 0
4 *128:4 0.00348414
5 *630:A *516:A 5.90074e-05
6 *630:A *571:CLK 8.49205e-05
7 *630:A *636:A 0.00050979
8 *630:A *150:8 0.000191243
9 adc_out[6] *630:A 3.12569e-05
10 adc_out[7] *630:A 0.000102123
11 *493:A *561:B1 0.0002525
12 *502:A *561:B1 0.000182925
13 *502:A *630:A 0.000162311
14 *517:A1 *630:A 0.000122337
15 *517:A2 *630:A 7.67415e-06
16 *520:A *630:A 0.000163199
17 *521:B1 *630:A 0.000173833
18 *551:A2 *561:B1 4.82919e-05
19 *552:A3 *561:B1 0.000250615
20 *553:B1 *561:B1 2.85364e-05
21 *556:B1 *561:B1 7.14892e-06
22 *577:CLK *630:A 2.8185e-05
23 *577:D *630:A 0.000150298
24 *585:CLK *561:B1 0.000541113
25 *585:D *561:B1 0.000235573
26 *614:A *630:A 0
27 *60:49 *561:B1 6.38806e-05
28 *60:57 *561:B1 0.000584316
29 *117:45 *630:A 0.000633979
30 *119:23 *561:B1 5.27201e-05
*RES
1 *493:Y *128:4 1.6 
2 *128:4 *561:B1 28.28 
3 *128:4 *630:A 38.9 
*END

*D_NET *129 0.0113871
*CONN
*I *532:C I *D sky130_fd_sc_hd__and3b_1
*I *525:A I *D sky130_fd_sc_hd__and3_1
*I *524:A I *D sky130_fd_sc_hd__nand2_1
*I *563:A I *D sky130_fd_sc_hd__or2_1
*I *565:A1 I *D sky130_fd_sc_hd__a21o_1
*I *526:A I *D sky130_fd_sc_hd__nand3_1
*I *528:A I *D sky130_fd_sc_hd__nand4_1
*I *541:C_N I *D sky130_fd_sc_hd__nor3b_2
*I *536:D I *D sky130_fd_sc_hd__and4bb_1
*I *533:D1 I *D sky130_fd_sc_hd__o2111a_1
*I *596:X O *D sky130_fd_sc_hd__clkbuf_2
*CAP
1 *532:C 0
2 *525:A 0.000231393
3 *524:A 0.00013972
4 *563:A 0
5 *565:A1 0
6 *526:A 0.000196279
7 *528:A 0
8 *541:C_N 0.000168907
9 *536:D 8.49259e-05
10 *533:D1 0
11 *596:X 0.000185877
12 *129:98 0.000217056
13 *129:55 0.000323792
14 *129:46 0.000391318
15 *129:40 0.000620916
16 *129:26 0.000495837
17 *129:24 0.000513205
18 *129:22 0.00145869
19 *129:16 0.00129989
20 *129:12 0.000386231
21 *524:A *537:C 4.82919e-05
22 *525:A *554:C 1.19928e-05
23 *525:A *132:81 0
24 *526:A *565:A2 8.35683e-05
25 *526:A *135:43 0.000215648
26 *541:C_N *541:B 0
27 *129:16 *136:29 0.000230435
28 *129:22 *522:A 0
29 *129:22 *134:12 0.000151836
30 *129:24 *565:A2 2.75229e-05
31 *129:40 *528:C 0.000687052
32 *129:40 *565:A2 0.000102289
33 *129:40 *565:B1 3.83041e-05
34 *129:46 *132:14 0
35 *129:46 *132:34 0
36 *129:46 *132:49 0.000205169
37 *129:46 *135:64 0
38 *504:D_N *524:A 0
39 *505:A *129:22 6.28988e-05
40 *521:C1 *525:A 4.82919e-05
41 *524:B *524:A 2.97004e-06
42 *524:B *129:22 5.8023e-05
43 *532:A_N *525:A 2.15594e-05
44 *532:A_N *129:22 4.51866e-05
45 *538:B *129:12 4.80285e-05
46 *542:A *541:C_N 0
47 *543:A_N *541:C_N 4.84393e-05
48 *543:A_N *129:46 4.39734e-05
49 *543:A_N *129:55 5.65627e-05
50 *543:B_N *536:D 7.35813e-05
51 *544:A2 *541:C_N 0
52 *549:B *526:A 0
53 *568:C *129:40 3.66286e-05
54 *568:C *129:46 4.99619e-05
55 *570:B1 *524:A 4.82919e-05
56 *570:B1 *526:A 8.40213e-05
57 *588:CLK *524:A 0
58 *588:CLK *129:98 0
59 *588:D *129:22 7.36892e-05
60 *590:D *129:40 0
61 *601:A *525:A 0.000333496
62 *76:14 *524:A 0
63 *89:36 *129:40 4.82863e-05
64 *89:36 *129:46 4.82919e-05
65 *89:42 *129:46 0
66 *91:12 *524:A 4.05358e-05
67 *91:23 *524:A 0
68 *93:6 *526:A 4.66742e-05
69 *93:14 *526:A 4.61196e-05
70 *94:12 *129:46 0
71 *94:12 *129:55 0
72 *94:23 *541:C_N 0
73 *94:23 *129:55 0
74 *99:8 *129:12 0.000199662
75 *99:15 *129:12 4.82919e-05
76 *103:12 *524:A 8.99597e-05
77 *103:26 *129:40 4.35432e-05
78 *105:10 *129:22 8.70268e-05
79 *107:10 *129:40 7.4027e-05
80 *107:21 *129:40 4.21314e-05
81 *107:21 *129:46 6.81463e-05
82 *108:18 *524:A 1.37856e-05
83 *108:18 *129:24 6.45631e-05
84 *108:18 *129:40 0.000513652
85 *108:18 *129:98 3.18219e-05
86 *109:18 *129:46 7.44453e-05
87 *114:62 *129:12 6.43122e-05
88 *114:62 *129:16 6.07575e-06
89 *115:52 *525:A 8.40269e-05
*RES
1 *596:X *129:12 6.055 
2 *129:12 *129:16 4.52 
3 *129:16 *129:22 13.955 
4 *129:22 *129:24 5.97 
5 *129:24 *129:26 2 
6 *129:26 *129:40 17.16 
7 *129:40 *129:46 8.93 
8 *129:46 *533:D1 3.6 
9 *129:46 *129:55 1.38 
10 *129:55 *536:D 4.74 
11 *129:55 *541:C_N 6.51 
12 *129:40 *528:A 1.6 
13 *129:26 *526:A 8.07 
14 *129:24 *565:A1 1.6 
15 *129:22 *129:98 3.125 
16 *129:98 *563:A 3.6 
17 *129:98 *524:A 6.705 
18 *129:16 *525:A 8.835 
19 *129:12 *532:C 1.6 
*END

*D_NET *130 0.00446288
*CONN
*I *510:B I *D sky130_fd_sc_hd__or2_1
*I *518:B I *D sky130_fd_sc_hd__or2_1
*I *516:B I *D sky130_fd_sc_hd__or2_1
*I *514:B I *D sky130_fd_sc_hd__or2_1
*I *506:B I *D sky130_fd_sc_hd__or2_1
*I *612:X O *D sky130_fd_sc_hd__buf_1
*CAP
1 *510:B 0
2 *518:B 0.000360425
3 *516:B 0
4 *514:B 9.73191e-06
5 *506:B 0.000106978
6 *612:X 0.000617882
7 *130:36 0.000723503
8 *130:25 0.000542144
9 *130:21 0.000445317
10 *130:8 0.00100084
11 *514:B *514:A 4.82863e-05
12 *514:B *634:A 4.82863e-05
13 *518:B *516:A 7.07801e-05
14 *130:21 *510:A 8.65905e-05
15 *130:21 *511:C1 4.99619e-05
16 *130:36 *514:A 0
17 *130:36 *516:A 5.53249e-06
18 *511:B1 *130:21 0.000141323
19 *519:A2 *518:B 0
20 *574:D *130:21 4.82863e-05
21 *575:D *130:8 1.54049e-05
22 *576:D *130:36 0
23 *578:D *518:B 0.000141606
24 *628:A *518:B 0
25 *80:107 *518:B 0
26 *80:107 *130:36 0
27 *104:60 *506:B 0
28 *104:60 *130:25 0
29 *104:60 *130:36 0
30 *104:69 *130:36 0
*RES
1 *612:X *130:8 10 
2 *130:8 *506:B 7.235 
3 *130:8 *130:21 4.935 
4 *130:21 *130:25 4.655 
5 *130:25 *514:B 4.05 
6 *130:25 *130:36 5.97 
7 *130:36 *516:B 3.6 
8 *130:36 *518:B 10.08 
9 *130:21 *510:B 1.6 
*END

*D_NET *131 0.00406949
*CONN
*I *631:A I *D sky130_fd_sc_hd__buf_2
*I *506:A I *D sky130_fd_sc_hd__or2_1
*I *572:Q O *D sky130_fd_sc_hd__dfxtp_1
*CAP
1 *631:A 0.00149246
2 *506:A 4.51378e-05
3 *572:Q 0
4 *131:4 0.0015376
5 *631:A *633:A 0.000557186
6 *631:A *147:8 0.000119964
7 adc_out[2] *631:A 1.17114e-05
8 *574:D *631:A 6.50844e-06
9 *104:56 *506:A 0.000164874
10 *104:56 *631:A 0.000134043
*RES
1 *572:Q *131:4 1.6 
2 *131:4 *506:A 3.7 
3 *131:4 *631:A 29.57 
*END

*D_NET *132 0.0107706
*CONN
*I *536:A_N I *D sky130_fd_sc_hd__and4bb_1
*I *546:A I *D sky130_fd_sc_hd__nor2_2
*I *554:A I *D sky130_fd_sc_hd__or4_1
*I *537:A I *D sky130_fd_sc_hd__or4_1
*I *505:D_N I *D sky130_fd_sc_hd__or4b_4
*I *540:A1 I *D sky130_fd_sc_hd__o41a_1
*I *527:A_N I *D sky130_fd_sc_hd__and2b_1
*I *530:A1 I *D sky130_fd_sc_hd__o21a_1
*I *529:A I *D sky130_fd_sc_hd__or2_1
*I *569:A I *D sky130_fd_sc_hd__nand2_1
*I *597:X O *D sky130_fd_sc_hd__clkbuf_2
*CAP
1 *536:A_N 0.000272346
2 *546:A 0
3 *554:A 0.000130955
4 *537:A 1.17533e-05
5 *505:D_N 0.000111704
6 *540:A1 0
7 *527:A_N 0
8 *530:A1 0.000180627
9 *529:A 0
10 *569:A 8.25272e-05
11 *597:X 0.000170474
12 *132:81 0.000325483
13 *132:79 0.000332981
14 *132:77 0.000692699
15 *132:62 0.000692699
16 *132:60 0.000448877
17 *132:49 0.000363314
18 *132:34 0.000444081
19 *132:14 0.000264359
20 *132:8 0.000428976
21 *505:D_N *522:A 0.000176994
22 *536:A_N *133:91 0.000124101
23 *554:A *554:C 5.30673e-05
24 *132:81 *522:A 0.00011041
25 *504:D_N *537:A 2.75145e-05
26 *522:B *505:D_N 7.60965e-05
27 *525:A *132:81 0
28 *529:B *569:A 1.49498e-05
29 *540:A4 *132:77 0.000300722
30 *543:D *132:60 8.49205e-05
31 *546:B *132:77 0.000347917
32 *554:B *554:A 6.97118e-05
33 *554:D *554:A 0.000122331
34 *559:A1 *132:60 1.26548e-05
35 *559:A2 *536:A_N 8.73389e-06
36 *559:B1 *536:A_N 9.02174e-05
37 *569:B *569:A 3.54536e-05
38 *570:A2 *530:A1 4.99619e-05
39 *570:B1 *530:A1 0.00011577
40 *570:B1 *132:49 0.000159305
41 *593:A *132:77 4.82863e-05
42 *597:A *132:14 4.66108e-05
43 *599:A *505:D_N 0.000122331
44 *60:8 *132:77 5.68717e-05
45 *60:42 *554:A 0.000112123
46 *76:27 *132:60 3.60648e-05
47 *89:12 *505:D_N 1.94892e-05
48 *89:42 *132:14 0.000152471
49 *89:42 *132:34 3.75492e-05
50 *89:83 *505:D_N 4.54788e-05
51 *89:83 *554:A 5.55458e-05
52 *89:83 *132:81 0.000130463
53 *91:36 *132:77 0.000627847
54 *95:10 *132:8 0.000134938
55 *95:10 *132:14 0.000376239
56 *95:12 *569:A 3.90495e-05
57 *95:12 *132:14 1.16578e-05
58 *107:21 *132:49 0.000110665
59 *107:38 *132:60 7.57202e-05
60 *107:53 *536:A_N 3.07603e-05
61 *107:53 *132:60 0.000394744
62 *107:81 *537:A 4.82863e-05
63 *109:18 *132:60 0.000497676
64 *114:35 *536:A_N 0.00020653
65 *114:35 *132:60 5.4003e-05
66 *114:62 *132:77 9.02174e-05
67 *115:52 *554:A 6.90876e-05
68 *129:46 *132:14 0
69 *129:46 *132:34 0
70 *129:46 *132:49 0.000205169
*RES
1 *597:X *132:8 5.775 
2 *132:8 *132:14 6.425 
3 *132:14 *569:A 3.46 
4 *132:14 *529:A 1.6 
5 *132:8 *132:34 3.38 
6 *132:34 *530:A1 4.81 
7 *132:34 *132:49 8.92 
8 *132:49 *527:A_N 1.6 
9 *132:49 *132:60 8.735 
10 *132:60 *132:62 2 
11 *132:62 *540:A1 1.6 
12 *132:62 *132:77 15.345 
13 *132:77 *132:79 2 
14 *132:79 *132:81 4.185 
15 *132:81 *505:D_N 6.885 
16 *132:81 *537:A 4.05 
17 *132:79 *554:A 7.665 
18 *132:77 *546:A 1.6 
19 *132:60 *536:A_N 8.445 
*END

*D_NET *133 0.0102801
*CONN
*I *537:C I *D sky130_fd_sc_hd__or4_1
*I *557:A3 I *D sky130_fd_sc_hd__o41a_1
*I *526:B I *D sky130_fd_sc_hd__nand3_1
*I *541:A I *D sky130_fd_sc_hd__nor3b_2
*I *531:B I *D sky130_fd_sc_hd__and2b_1
*I *536:B_N I *D sky130_fd_sc_hd__and4bb_1
*I *540:A3 I *D sky130_fd_sc_hd__o41a_1
*I *533:C1 I *D sky130_fd_sc_hd__o2111a_1
*I *565:B1 I *D sky130_fd_sc_hd__a21o_1
*I *528:C I *D sky130_fd_sc_hd__nand4_1
*I *598:X O *D sky130_fd_sc_hd__buf_2
*CAP
1 *537:C 0.00033353
2 *557:A3 0.000341957
3 *526:B 2.14525e-05
4 *541:A 6.33596e-05
5 *531:B 0
6 *536:B_N 5.89424e-05
7 *540:A3 2.9928e-05
8 *533:C1 0.000275645
9 *565:B1 1.96339e-05
10 *528:C 0.0001584
11 *598:X 0
12 *133:116 0.000839956
13 *133:91 0.000411398
14 *133:64 0.000471459
15 *133:42 0.000305572
16 *133:40 0.00033429
17 *133:34 0.000328373
18 *133:12 0.00034743
19 *133:6 0.000297212
20 *133:4 0.000255177
21 *133:12 *565:A2 7.44375e-05
22 *133:12 *135:43 7.60553e-05
23 *133:40 *528:D 2.95708e-05
24 *133:40 *135:51 0.000352156
25 *133:40 *135:64 0.000284969
26 *133:64 *541:B 1.88904e-05
27 *133:64 *135:64 0.000162479
28 *133:91 *531:A_N 5.83121e-06
29 *501:A *557:A3 0
30 *504:D_N *537:C 0.00015896
31 *524:A *537:C 4.82919e-05
32 *533:A1 *533:C1 4.66742e-05
33 *533:A1 *557:A3 0
34 *533:A2 *533:C1 4.05089e-05
35 *536:A_N *133:91 0.000124101
36 *537:B *537:C 2.0514e-05
37 *540:B1 *533:C1 4.66108e-05
38 *540:B1 *540:A3 4.66108e-05
39 *543:B_N *536:B_N 1.91597e-05
40 *544:A1 *533:C1 6.90876e-05
41 *549:B *557:A3 0.000245527
42 *549:B *133:116 7.57202e-05
43 *549:C_N *557:A3 0
44 *557:A1 *557:A3 0
45 *557:A4 *557:A3 6.41344e-05
46 *557:B1 *557:A3 4.82863e-05
47 *558:B *557:A3 0
48 *559:A1 *536:B_N 0
49 *559:A1 *133:64 5.47882e-05
50 *559:A2 *536:B_N 2.04101e-05
51 *559:C1 *133:64 6.83447e-05
52 *566:C *528:C 2.30292e-05
53 *567:A *133:12 0
54 *570:B1 *537:C 0.000166811
55 *570:B1 *133:6 7.68414e-06
56 *570:B1 *133:40 4.60584e-05
57 *598:A *537:C 0.000199833
58 *598:A *557:A3 0
59 *598:A *133:116 1.12578e-05
60 *56:25 *541:A 0.00012657
61 *56:25 *133:91 2.97473e-05
62 *76:27 *133:12 0
63 *76:27 *133:40 0.000304726
64 *76:27 *133:64 8.53113e-06
65 *89:36 *528:C 5.53249e-06
66 *93:6 *133:6 8.40213e-05
67 *93:6 *133:116 8.49205e-05
68 *94:31 *133:91 0.000112127
69 *103:26 *528:C 0.00058455
70 *103:26 *133:12 6.9117e-05
71 *107:10 *528:C 7.23602e-05
72 *107:21 *528:C 9.50342e-06
73 *107:53 *133:91 1.44947e-05
74 *107:81 *537:C 0.000234674
75 *108:18 *557:A3 0
76 *114:35 *541:A 4.80285e-05
77 *114:35 *133:91 2.69493e-05
78 *115:52 *557:A3 2.75145e-05
79 *115:52 *133:91 0.000160849
80 *129:40 *528:C 0.000687052
81 *129:40 *565:B1 3.83041e-05
*RES
1 *598:X *133:4 1.6 
2 *133:4 *133:6 1.14 
3 *133:6 *133:12 7.42 
4 *133:12 *528:C 12.95 
5 *133:12 *565:B1 2.05 
6 *133:6 *133:34 0.615 
7 *133:34 *133:40 9.575 
8 *133:40 *133:42 2 
9 *133:42 *533:C1 5.89 
10 *133:42 *540:A3 2.05 
11 *133:40 *133:64 2.145 
12 *133:64 *536:B_N 4.41 
13 *133:64 *133:91 7.10183 
14 *133:91 *531:B 1.6 
15 *133:91 *541:A 3.355 
16 *133:34 *526:B 1.96 
17 *133:4 *133:116 2.445 
18 *133:116 *557:A3 12.275 
19 *133:116 *537:C 9.295 
*END

*D_NET *134 0.00348706
*CONN
*I *505:B I *D sky130_fd_sc_hd__or4b_4
*I *525:B I *D sky130_fd_sc_hd__and3_1
*I *554:C I *D sky130_fd_sc_hd__or4_1
*I *532:B I *D sky130_fd_sc_hd__and3b_1
*I *504:B I *D sky130_fd_sc_hd__nor4b_1
*I *599:X O *D sky130_fd_sc_hd__buf_1
*CAP
1 *505:B 0
2 *525:B 2.2861e-05
3 *554:C 0.000164143
4 *532:B 0
5 *504:B 8.57258e-05
6 *599:X 0.000173187
7 *134:40 0.000399172
8 *134:27 0.000503657
9 *134:12 0.000440521
10 *134:6 0.000236494
11 *134:6 *505:C 0.000119756
12 *134:6 *136:29 2.75229e-05
13 *134:27 *525:C 3.686e-05
14 *134:27 *136:29 0.000113524
15 *134:40 *525:C 9.20497e-05
16 *500:A *134:27 0
17 *521:C1 *554:C 7.35813e-05
18 *521:C1 *134:40 3.90495e-05
19 *525:A *554:C 1.19928e-05
20 *532:A_N *134:12 1.93416e-05
21 *538:B *134:27 3.89528e-05
22 *538:B *134:40 0.000120836
23 *539:A2 *504:B 1.33293e-05
24 *539:A3 *134:27 0
25 *554:A *554:C 5.30673e-05
26 *554:B *554:C 9.03508e-06
27 *599:A *134:6 2.59926e-05
28 *79:10 *134:27 0.000102208
29 *92:12 *134:40 4.82863e-05
30 *94:43 *134:40 7.58604e-05
31 *105:10 *134:12 0.000131485
32 *105:14 *504:B 8.23457e-05
33 *105:14 *134:27 3.57349e-05
34 *107:81 *504:B 3.09774e-05
35 *115:52 *554:C 7.67415e-06
36 *120:20 *134:40 0
37 *129:22 *134:12 0.000151836
*RES
1 *599:X *134:6 3.775 
2 *134:6 *134:12 5.89 
3 *134:12 *504:B 3.1 
4 *134:12 *134:27 6.575 
5 *134:27 *532:B 3.6 
6 *134:27 *134:40 7.07 
7 *134:40 *554:C 4.48 
8 *134:40 *525:B 1.96 
9 *134:6 *505:B 1.6 
*END

*D_NET *135 0.0125479
*CONN
*I *525:C I *D sky130_fd_sc_hd__and3_1
*I *505:C I *D sky130_fd_sc_hd__or4b_4
*I *563:B I *D sky130_fd_sc_hd__or2_1
*I *531:A_N I *D sky130_fd_sc_hd__and2b_1
*I *492:A I *D sky130_fd_sc_hd__inv_2
*I *526:C I *D sky130_fd_sc_hd__nand3_1
*I *541:B I *D sky130_fd_sc_hd__nor3b_2
*I *536:C I *D sky130_fd_sc_hd__and4bb_1
*I *528:D I *D sky130_fd_sc_hd__nand4_1
*I *565:A2 I *D sky130_fd_sc_hd__a21o_1
*I *600:X O *D sky130_fd_sc_hd__buf_2
*CAP
1 *525:C 0.00022308
2 *505:C 5.53974e-05
3 *563:B 0
4 *531:A_N 0.000177965
5 *492:A 1.71066e-05
6 *526:C 0
7 *541:B 0.000224768
8 *536:C 0.000151595
9 *528:D 0.000161369
10 *565:A2 7.89897e-05
11 *600:X 0
12 *135:99 0.000445011
13 *135:64 0.000634758
14 *135:51 0.000491323
15 *135:47 0.000103617
16 *135:43 0.000545585
17 *135:24 0.000440349
18 *135:20 0.00061427
19 *135:8 0.000607259
20 *135:6 0.000258443
21 *525:C *136:29 0.00010009
22 *135:8 *136:29 4.94404e-05
23 *135:20 *136:29 1.70935e-05
24 *501:A *135:99 3.50033e-05
25 *505:A *505:C 8.49205e-05
26 *522:B *135:20 0.000494619
27 *526:A *565:A2 8.35683e-05
28 *526:A *135:43 0.000215648
29 *533:A1 *135:64 6.10014e-05
30 *533:A1 *135:99 0.000242844
31 *541:C_N *541:B 0
32 *542:A *541:B 6.57653e-06
33 *543:B_N *536:C 9.2741e-05
34 *549:B *135:99 0
35 *559:C1 *541:B 1.97849e-05
36 *560:A1 *531:A_N 0
37 *560:A3 *531:A_N 9.54399e-05
38 *567:A *528:D 2.38193e-05
39 *568:C *528:D 0.000162311
40 *570:B1 *135:43 0.000161529
41 *570:B1 *135:51 0.000386215
42 *588:CLK *135:20 0.000302194
43 *592:A *525:C 0.000404054
44 *592:A *135:8 8.45475e-05
45 *592:A *135:20 9.37731e-05
46 *599:A *505:C 3.83194e-05
47 *599:A *135:20 0.000141974
48 *601:A *525:C 3.98952e-05
49 *56:25 *531:A_N 6.97118e-05
50 *56:25 *541:B 8.65905e-05
51 *76:27 *528:D 7.34363e-05
52 *76:27 *135:47 0
53 *76:27 *135:99 0
54 *78:40 *531:A_N 0
55 *78:40 *135:99 0
56 *89:12 *135:20 0.000275548
57 *89:22 *135:20 0.000150489
58 *89:22 *135:24 0.000617721
59 *89:36 *528:D 5.84694e-05
60 *94:12 *135:64 1.08194e-05
61 *94:23 *536:C 6.57653e-06
62 *94:23 *541:B 0
63 *98:10 *541:B 0.000133541
64 *103:18 *135:20 1.16578e-05
65 *103:18 *135:24 0.00047194
66 *107:21 *528:D 0
67 *107:21 *135:64 0
68 *107:53 *492:A 5.05521e-05
69 *107:53 *531:A_N 2.11536e-05
70 *107:53 *135:99 0.000104229
71 *108:18 *565:A2 1.61831e-05
72 *114:35 *541:B 6.46283e-05
73 *114:62 *135:99 0.000114492
74 *115:52 *492:A 8.65961e-05
75 *115:52 *525:C 1.70906e-05
76 *115:52 *531:A_N 5.53632e-05
77 *115:52 *541:B 0
78 *129:24 *565:A2 2.75229e-05
79 *129:40 *565:A2 0.000102289
80 *129:46 *135:64 0
81 *133:12 *565:A2 7.44375e-05
82 *133:12 *135:43 7.60553e-05
83 *133:40 *528:D 2.95708e-05
84 *133:40 *135:51 0.000352156
85 *133:40 *135:64 0.000284969
86 *133:64 *541:B 1.88904e-05
87 *133:64 *135:64 0.000162479
88 *133:91 *531:A_N 5.83121e-06
89 *134:6 *505:C 0.000119756
90 *134:27 *525:C 3.686e-05
91 *134:40 *525:C 9.20497e-05
*RES
1 *600:X *135:6 3.6 
2 *135:6 *135:8 1.125 
3 *135:8 *135:20 13.28 
4 *135:20 *135:24 7.625 
5 *135:24 *565:A2 6.03 
6 *135:24 *135:43 8.65 
7 *135:43 *135:47 2.615 
8 *135:47 *135:51 5.555 
9 *135:51 *528:D 7.485 
10 *135:51 *135:64 5.3325 
11 *135:64 *536:C 5.7675 
12 *135:64 *541:B 7.9875 
13 *135:47 *526:C 1.6 
14 *135:43 *135:99 5.46 
15 *135:99 *492:A 4.395 
16 *135:99 *531:A_N 7.44 
17 *135:20 *563:B 1.6 
18 *135:8 *505:C 5.085 
19 *135:6 *525:C 9.99 
*END

*D_NET *136 0.0123883
*CONN
*I *513:C1 I *D sky130_fd_sc_hd__o211a_1
*I *503:B I *D sky130_fd_sc_hd__and2b_1
*I *519:C1 I *D sky130_fd_sc_hd__o211a_1
*I *517:C1 I *D sky130_fd_sc_hd__o211a_1
*I *515:C1 I *D sky130_fd_sc_hd__o211a_1
*I *511:C1 I *D sky130_fd_sc_hd__o211a_1
*I *507:C1 I *D sky130_fd_sc_hd__o211a_1
*I *509:C1 I *D sky130_fd_sc_hd__o211a_1
*I *523:A I *D sky130_fd_sc_hd__nand2_2
*I *522:A I *D sky130_fd_sc_hd__and2_2
*I *601:X O *D sky130_fd_sc_hd__buf_2
*CAP
1 *513:C1 0
2 *503:B 0.00033939
3 *519:C1 0.000345448
4 *517:C1 2.11983e-05
5 *515:C1 2.42846e-05
6 *511:C1 0.000143509
7 *507:C1 4.56957e-05
8 *509:C1 1.49415e-05
9 *523:A 1.88809e-05
10 *522:A 0.000258739
11 *601:X 0
12 *136:118 0.000360949
13 *136:94 0.00062212
14 *136:83 0.000518259
15 *136:70 0.000441163
16 *136:57 0.000369583
17 *136:53 0.000765884
18 *136:38 0.000646634
19 *136:29 0.00079877
20 *136:4 0.000886526
21 *503:B *503:A_N 2.75145e-05
22 *503:B *571:CLK 3.09164e-05
23 *511:C1 *148:12 0
24 *136:70 *512:A 1.47256e-05
25 *136:70 *148:12 0.000314745
26 *495:A *519:C1 4.31189e-05
27 *498:A *503:B 0
28 *505:A *522:A 6.15843e-05
29 *505:D_N *522:A 0.000176994
30 *511:A2 *511:C1 0
31 *512:B *507:C1 0
32 *512:B *136:70 9.27255e-06
33 *513:A1 *503:B 9.37731e-05
34 *513:B1 *507:C1 4.99619e-05
35 *513:B1 *136:57 0.000541113
36 *515:A1 *515:C1 2.75229e-05
37 *515:B1 *136:83 0.000126743
38 *515:B1 *136:94 2.97004e-06
39 *517:B1 *519:C1 2.97004e-06
40 *517:B1 *136:94 5.51158e-05
41 *519:B1 *519:C1 1.85674e-05
42 *520:B *136:83 0
43 *521:A2 *503:B 0.000196342
44 *521:C1 *503:B 3.68784e-05
45 *523:B *523:A 5.4155e-06
46 *525:C *136:29 0.00010009
47 *532:A_N *136:29 4.66108e-05
48 *553:B1 *503:B 4.82863e-05
49 *553:B1 *136:94 0
50 *599:A *136:29 0.00012657
51 *601:A *136:29 8.57024e-05
52 *627:A *519:C1 0.000252289
53 *79:10 *136:57 1.56428e-05
54 *79:14 *503:B 1.1561e-05
55 *79:14 *136:53 0.000115888
56 *79:14 *136:118 5.10587e-05
57 *79:36 *507:C1 5.30673e-05
58 *79:36 *136:57 6.07575e-06
59 *80:15 *136:29 0.000175887
60 *80:15 *136:38 4.60584e-05
61 *80:26 *509:C1 4.00541e-06
62 *80:26 *136:38 0.000191243
63 *80:26 *136:53 3.94429e-05
64 *80:39 *509:C1 9.72742e-06
65 *80:39 *136:53 0.000738315
66 *80:81 *136:57 0.000198939
67 *80:81 *136:70 0.000378802
68 *80:94 *136:83 0
69 *90:10 *136:29 0.000353049
70 *104:10 *503:B 0
71 *104:10 *136:53 0
72 *104:10 *136:118 0
73 *104:69 *136:94 0
74 *104:100 *503:B 0
75 *114:62 *522:A 3.70009e-05
76 *114:62 *136:29 8.23444e-05
77 *116:10 *519:C1 0
78 *116:10 *136:83 0
79 *116:10 *136:94 0
80 *116:29 *519:C1 0
81 *117:45 *517:C1 4.82919e-05
82 *118:36 *519:C1 0.00011577
83 *129:16 *136:29 0.000230435
84 *129:22 *522:A 0
85 *130:21 *511:C1 4.99619e-05
86 *132:81 *522:A 0.00011041
87 *134:6 *136:29 2.75229e-05
88 *134:27 *136:29 0.000113524
89 *135:8 *136:29 4.94404e-05
90 *135:20 *136:29 1.70935e-05
*RES
1 *601:X *136:4 1.6 
2 *136:4 *522:A 10.415 
3 *136:4 *136:29 18.25 
4 *136:29 *523:A 1.96 
5 *136:29 *136:38 3.555 
6 *136:38 *509:C1 1.96 
7 *136:38 *136:53 11.435 
8 *136:53 *136:57 7.97 
9 *136:57 *507:C1 3.01 
10 *136:57 *136:70 5.555 
11 *136:70 *511:C1 5.94 
12 *136:70 *136:83 4.695 
13 *136:83 *515:C1 4.05 
14 *136:83 *136:94 4.185 
15 *136:94 *517:C1 4.05 
16 *136:94 *519:C1 10.23 
17 *136:53 *136:118 0.615 
18 *136:118 *503:B 10.98 
19 *136:118 *513:C1 3.6 
*END

*D_NET *137 0.000428826
*CONN
*I *571:CLK I *D sky130_fd_sc_hd__dfxtp_1
*I *502:Y O *D sky130_fd_sc_hd__inv_2
*CAP
1 *571:CLK 0.000109154
2 *502:Y 0.000109154
3 *503:B *571:CLK 3.09164e-05
4 *521:A2 *571:CLK 6.28687e-05
5 *521:C1 *571:CLK 3.18137e-05
6 *630:A *571:CLK 8.49205e-05
*RES
1 *502:Y *571:CLK 9.375 
*END

*D_NET *138 0.00121088
*CONN
*I *503:A_N I *D sky130_fd_sc_hd__and2b_1
*I *602:X O *D sky130_fd_sc_hd__dlygate4sd3_1
*CAP
1 *503:A_N 0.000316605
2 *602:X 0.000316605
3 *503:B *503:A_N 2.75145e-05
4 *513:A1 *503:A_N 8.23457e-05
5 *521:A2 *503:A_N 0
6 *545:B1 *503:A_N 2.75229e-05
7 *553:B1 *503:A_N 0.000207637
8 *571:D *503:A_N 0.000147734
9 *614:A *503:A_N 0
10 *111:10 *503:A_N 0
11 *115:54 *503:A_N 8.49205e-05
*RES
1 *602:X *503:A_N 14.31 
*END

*D_NET *139 0.00236274
*CONN
*I *521:A1 I *D sky130_fd_sc_hd__o211a_1
*I *603:X O *D sky130_fd_sc_hd__dlygate4sd3_1
*CAP
1 *521:A1 0.000738185
2 *603:X 0.000738185
3 *497:A *521:A1 8.40213e-05
4 *579:CLK *521:A1 0.000148571
5 *585:CLK *521:A1 0.000120382
6 *585:D *521:A1 0.000151967
7 *620:A *521:A1 3.1333e-05
8 *117:45 *521:A1 0.000350099
*RES
1 *603:X *521:A1 15.35 
*END

*D_NET *140 0.000491642
*CONN
*I *579:D I *D sky130_fd_sc_hd__dfxtp_1
*I *604:X O *D sky130_fd_sc_hd__dlygate4sd3_1
*CAP
1 *579:D 0.000187172
2 *604:X 0.000187172
3 *520:A *579:D 0
4 *551:B1 *579:D 0.000117297
*RES
1 *604:X *579:D 10.1888 
*END

*D_NET *141 0.000615321
*CONN
*I *510:A I *D sky130_fd_sc_hd__or2_1
*I *605:X O *D sky130_fd_sc_hd__dlygate4sd3_1
*CAP
1 *510:A 0.000264365
2 *605:X 0.000264365
3 *130:21 *510:A 8.65905e-05
*RES
1 *605:X *510:A 7.445 
*END

*D_NET *142 0.0044117
*CONN
*I *632:A I *D sky130_fd_sc_hd__buf_2
*I *508:A I *D sky130_fd_sc_hd__or2_1
*I *573:Q O *D sky130_fd_sc_hd__dfxtp_1
*CAP
1 *632:A 0.00171114
2 *508:A 0.000157493
3 *573:Q 0.000102405
4 *142:10 0.00197103
5 *508:B *508:A 0.000318091
6 *508:B *632:A 0.000151541
7 *508:B *142:10 0
*RES
1 *573:Q *142:10 7.235 
2 *142:10 *508:A 5.155 
3 *142:10 *632:A 27.925 
*END

*D_NET *143 0.000598149
*CONN
*I *518:A I *D sky130_fd_sc_hd__or2_1
*I *606:X O *D sky130_fd_sc_hd__dlygate4sd3_1
*CAP
1 *518:A 9.23917e-05
2 *606:X 9.23917e-05
3 dac_in_n[5] *518:A 7.00889e-06
4 *494:A *518:A 0.000318091
5 *519:B1 *518:A 8.8266e-05
*RES
1 *606:X *518:A 6.065 
*END

*D_NET *144 0.00116924
*CONN
*I *516:A I *D sky130_fd_sc_hd__or2_1
*I *607:X O *D sky130_fd_sc_hd__dlygate4sd3_1
*CAP
1 *516:A 0.000474758
2 *607:X 0.000474758
3 *516:A *150:8 2.11084e-05
4 *518:B *516:A 7.07801e-05
5 *577:D *516:A 9.90763e-06
6 *630:A *516:A 5.90074e-05
7 *80:107 *516:A 5.33874e-05
8 *130:36 *516:A 5.53249e-06
*RES
1 *607:X *516:A 13.77 
*END

*D_NET *145 0.000957737
*CONN
*I *514:A I *D sky130_fd_sc_hd__or2_1
*I *608:X O *D sky130_fd_sc_hd__dlygate4sd3_1
*CAP
1 *514:A 0.000317219
2 *608:X 0.000317219
3 *514:A *634:A 0.000275013
4 *514:B *514:A 4.82863e-05
5 *130:36 *514:A 0
*RES
1 *608:X *514:A 12.915 
*END

*D_NET *146 0.000340758
*CONN
*I *512:A I *D sky130_fd_sc_hd__or2_1
*I *609:X O *D sky130_fd_sc_hd__dlygate4sd3_1
*CAP
1 *512:A 2.61889e-05
2 *609:X 2.61889e-05
3 *512:A *148:12 2.0514e-05
4 *512:B *512:A 0.00025314
5 *136:70 *512:A 1.47256e-05
*RES
1 *609:X *512:A 4.685 
*END

*D_NET *147 0.00214859
*CONN
*I *605:A I *D sky130_fd_sc_hd__dlygate4sd3_1
*I *633:A I *D sky130_fd_sc_hd__buf_2
*I *574:Q O *D sky130_fd_sc_hd__dfxtp_1
*CAP
1 *605:A 8.83727e-05
2 *633:A 0.000407314
3 *574:Q 0.000240033
4 *147:8 0.000735719
5 *631:A *633:A 0.000557186
6 *631:A *147:8 0.000119964
*RES
1 *574:Q *147:8 6.81 
2 *147:8 *633:A 12.6 
3 *147:8 *605:A 4.98 
*END

*D_NET *148 0.00354424
*CONN
*I *634:A I *D sky130_fd_sc_hd__buf_2
*I *609:A I *D sky130_fd_sc_hd__dlygate4sd3_1
*I *575:Q O *D sky130_fd_sc_hd__dfxtp_1
*CAP
1 *634:A 0.00108407
2 *609:A 0
3 *575:Q 0.000214721
4 *148:12 0.00129879
5 *507:B1 *148:12 0
6 *511:C1 *148:12 0
7 *512:A *148:12 2.0514e-05
8 *512:B *148:12 0.00012657
9 *514:A *634:A 0.000275013
10 *514:B *634:A 4.82863e-05
11 *515:B1 *634:A 7.32791e-05
12 *80:81 *634:A 4.35348e-05
13 *80:81 *148:12 4.47209e-05
14 *136:70 *148:12 0.000314745
*RES
1 *575:Q *148:12 10.535 
2 *148:12 *609:A 1.6 
3 *148:12 *634:A 20.005 
*END

*D_NET *149 0.00186523
*CONN
*I *608:A I *D sky130_fd_sc_hd__dlygate4sd3_1
*I *635:A I *D sky130_fd_sc_hd__buf_2
*I *576:Q O *D sky130_fd_sc_hd__dfxtp_1
*CAP
1 *608:A 0
2 *635:A 0.000693878
3 *576:Q 0.000238738
4 *149:8 0.000932617
*RES
1 *576:Q *149:8 5.17 
2 *149:8 *635:A 16.13 
3 *149:8 *608:A 1.6 
*END

*D_NET *150 0.00164722
*CONN
*I *636:A I *D sky130_fd_sc_hd__buf_2
*I *607:A I *D sky130_fd_sc_hd__dlygate4sd3_1
*I *577:Q O *D sky130_fd_sc_hd__dfxtp_1
*CAP
1 *636:A 0.000319048
2 *607:A 0
3 *577:Q 0.000143492
4 *150:8 0.00046254
5 *516:A *150:8 2.11084e-05
6 *630:A *636:A 0.00050979
7 *630:A *150:8 0.000191243
*RES
1 *577:Q *150:8 5.08 
2 *150:8 *607:A 1.6 
3 *150:8 *636:A 9.295 
*END

*D_NET *151 0.00281184
*CONN
*I *606:A I *D sky130_fd_sc_hd__dlygate4sd3_1
*I *637:A I *D sky130_fd_sc_hd__buf_2
*I *578:Q O *D sky130_fd_sc_hd__dfxtp_1
*CAP
1 *606:A 0.000209513
2 *637:A 0.000188635
3 *578:Q 0.000360937
4 *151:10 0.000759085
5 dac_in_n[5] *606:A 3.23663e-05
6 *613:A *637:A 0.00062029
7 *613:A *151:10 0.000507936
8 *628:A *606:A 4.99619e-05
9 *629:A *606:A 0
10 *629:A *637:A 8.31173e-05
*RES
1 *578:Q *151:10 8.805 
2 *151:10 *637:A 9.225 
3 *151:10 *606:A 7.23 
*END
