*SPEF "ieee 1481-1999"
*DESIGN "controller"
*DATE "17:04:30 Tuesday December 16, 2025"
*VENDOR "The OpenROAD Project"
*PROGRAM "OpenROAD"
*VERSION "edf00dff99f6c40d67a30c0e22a8191c5d2ed9d6"
*DESIGN_FLOW "NAME_SCOPE LOCAL" "PIN_CAP NONE"
*DIVIDER /
*DELIMITER :
*BUS_DELIMITER []
*T_UNIT 1 NS
*C_UNIT 1 PF
*R_UNIT 1 OHM
*L_UNIT 1 HENRY

*NAME_MAP
*3 adc_out[0]
*4 adc_out[1]
*5 adc_out[2]
*6 adc_out[3]
*7 adc_out[4]
*8 adc_out[5]
*9 adc_out[6]
*10 adc_out[7]
*11 clk
*12 comp
*13 comparator_clk
*14 dac_in[0]
*15 dac_in[1]
*16 dac_in[2]
*17 dac_in[3]
*18 dac_in[4]
*19 dac_in[5]
*20 dac_in[6]
*21 dac_in[7]
*22 dac_in_n[0]
*23 dac_in_n[1]
*24 dac_in_n[2]
*25 dac_in_n[3]
*26 dac_in_n[4]
*27 dac_in_n[5]
*28 dac_in_n[6]
*29 dac_in_n[7]
*30 rst_n
*31 _001_
*32 _002_
*33 _003_
*34 _004_
*35 _005_
*36 _006_
*37 _007_
*38 _008_
*39 _009_
*40 _010_
*41 _011_
*42 _012_
*43 _013_
*44 _014_
*45 _015_
*46 _016_
*47 _017_
*48 _018_
*49 _019_
*50 _020_
*51 _021_
*52 _022_
*53 _023_
*54 _024_
*55 _025_
*56 _026_
*57 _027_
*58 _028_
*59 _029_
*60 _030_
*61 _031_
*62 _032_
*63 _033_
*64 _034_
*65 _035_
*66 _036_
*67 _037_
*68 _038_
*69 _039_
*70 _040_
*71 _041_
*72 _042_
*73 _043_
*74 _044_
*75 _045_
*76 _046_
*77 _047_
*78 _048_
*79 _049_
*80 _050_
*81 _051_
*82 _052_
*83 _053_
*84 _054_
*85 _055_
*86 _056_
*87 _057_
*88 _058_
*89 _059_
*90 _060_
*91 _061_
*92 _062_
*93 _063_
*94 _064_
*95 _065_
*96 _066_
*97 _067_
*98 _068_
*99 _069_
*100 _070_
*101 _071_
*102 clknet_0_clk
*103 clknet_1_0__leaf_clk
*104 clknet_1_1__leaf_clk
*105 count\[0\]
*106 count\[1\]
*107 count\[2\]
*108 count\[3\]
*109 net1
*110 net10
*111 net11
*112 net12
*113 net13
*114 net14
*115 net15
*116 net16
*117 net17
*118 net18
*119 net19
*120 net2
*121 net20
*122 net21
*123 net22
*124 net23
*125 net24
*126 net25
*127 net26
*128 net27
*129 net28
*130 net29
*131 net3
*132 net30
*133 net31
*134 net32
*135 net33
*136 net34
*137 net35
*138 net36
*139 net37
*140 net38
*141 net39
*142 net4
*143 net40
*144 net41
*145 net42
*146 net43
*147 net44
*148 net5
*149 net6
*150 net7
*151 net8
*152 net9
*153 FILLER_0_109
*154 FILLER_0_113
*155 FILLER_0_125
*156 FILLER_0_137
*157 FILLER_0_141
*158 FILLER_0_15
*159 FILLER_0_153
*160 FILLER_0_165
*161 FILLER_0_169
*162 FILLER_0_181
*163 FILLER_0_192
*164 FILLER_0_197
*165 FILLER_0_209
*166 FILLER_0_213
*167 FILLER_0_219
*168 FILLER_0_223
*169 FILLER_0_225
*170 FILLER_0_237
*171 FILLER_0_249
*172 FILLER_0_253
*173 FILLER_0_265
*174 FILLER_0_27
*175 FILLER_0_273
*176 FILLER_0_281
*177 FILLER_0_29
*178 FILLER_0_3
*179 FILLER_0_41
*180 FILLER_0_53
*181 FILLER_0_57
*182 FILLER_0_69
*183 FILLER_0_81
*184 FILLER_0_85
*185 FILLER_0_97
*186 FILLER_1_104
*187 FILLER_1_129
*188 FILLER_1_148
*189 FILLER_1_15
*190 FILLER_1_160
*191 FILLER_1_169
*192 FILLER_1_181
*193 FILLER_1_199
*194 FILLER_1_207
*195 FILLER_1_225
*196 FILLER_1_233
*197 FILLER_1_251
*198 FILLER_1_263
*199 FILLER_1_27
*200 FILLER_1_275
*201 FILLER_1_279
*202 FILLER_1_281
*203 FILLER_1_3
*204 FILLER_1_39
*205 FILLER_1_51
*206 FILLER_1_55
*207 FILLER_1_57
*208 FILLER_1_63
*209 FILLER_1_71
*210 FILLER_1_92
*211 FILLER_2_100
*212 FILLER_2_120
*213 FILLER_2_15
*214 FILLER_2_155
*215 FILLER_2_163
*216 FILLER_2_191
*217 FILLER_2_195
*218 FILLER_2_197
*219 FILLER_2_227
*220 FILLER_2_243
*221 FILLER_2_251
*222 FILLER_2_261
*223 FILLER_2_27
*224 FILLER_2_273
*225 FILLER_2_285
*226 FILLER_2_29
*227 FILLER_2_3
*228 FILLER_2_41
*229 FILLER_2_53
*230 FILLER_2_76
*231 FILLER_2_82
*232 FILLER_2_90
*233 FILLER_2_96
*234 FILLER_3_109
*235 FILLER_3_113
*236 FILLER_3_131
*237 FILLER_3_15
*238 FILLER_3_151
*239 FILLER_3_157
*240 FILLER_3_163
*241 FILLER_3_167
*242 FILLER_3_169
*243 FILLER_3_175
*244 FILLER_3_187
*245 FILLER_3_199
*246 FILLER_3_223
*247 FILLER_3_233
*248 FILLER_3_245
*249 FILLER_3_257
*250 FILLER_3_269
*251 FILLER_3_27
*252 FILLER_3_277
*253 FILLER_3_281
*254 FILLER_3_3
*255 FILLER_3_39
*256 FILLER_3_51
*257 FILLER_3_55
*258 FILLER_3_57
*259 FILLER_3_73
*260 FILLER_3_85
*261 FILLER_3_97
*262 FILLER_4_103
*263 FILLER_4_124
*264 FILLER_4_136
*265 FILLER_4_145
*266 FILLER_4_15
*267 FILLER_4_155
*268 FILLER_4_164
*269 FILLER_4_172
*270 FILLER_4_178
*271 FILLER_4_190
*272 FILLER_4_197
*273 FILLER_4_209
*274 FILLER_4_221
*275 FILLER_4_233
*276 FILLER_4_253
*277 FILLER_4_265
*278 FILLER_4_27
*279 FILLER_4_277
*280 FILLER_4_285
*281 FILLER_4_29
*282 FILLER_4_3
*283 FILLER_4_41
*284 FILLER_4_53
*285 FILLER_4_65
*286 FILLER_4_77
*287 FILLER_4_83
*288 FILLER_4_91
*289 FILLER_5_103
*290 FILLER_5_107
*291 FILLER_5_111
*292 FILLER_5_113
*293 FILLER_5_117
*294 FILLER_5_143
*295 FILLER_5_147
*296 FILLER_5_169
*297 FILLER_5_175
*298 FILLER_5_18
*299 FILLER_5_221
*300 FILLER_5_225
*301 FILLER_5_231
*302 FILLER_5_245
*303 FILLER_5_255
*304 FILLER_5_267
*305 FILLER_5_279
*306 FILLER_5_281
*307 FILLER_5_30
*308 FILLER_5_38
*309 FILLER_5_57
*310 FILLER_5_6
*311 FILLER_5_66
*312 FILLER_5_81
*313 FILLER_5_99
*314 FILLER_6_116
*315 FILLER_6_128
*316 FILLER_6_15
*317 FILLER_6_152
*318 FILLER_6_160
*319 FILLER_6_172
*320 FILLER_6_184
*321 FILLER_6_197
*322 FILLER_6_220
*323 FILLER_6_232
*324 FILLER_6_238
*325 FILLER_6_244
*326 FILLER_6_253
*327 FILLER_6_265
*328 FILLER_6_27
*329 FILLER_6_277
*330 FILLER_6_285
*331 FILLER_6_29
*332 FILLER_6_3
*333 FILLER_6_41
*334 FILLER_6_53
*335 FILLER_6_65
*336 FILLER_6_73
*337 FILLER_7_102
*338 FILLER_7_110
*339 FILLER_7_113
*340 FILLER_7_120
*341 FILLER_7_126
*342 FILLER_7_134
*343 FILLER_7_15
*344 FILLER_7_155
*345 FILLER_7_169
*346 FILLER_7_183
*347 FILLER_7_195
*348 FILLER_7_202
*349 FILLER_7_206
*350 FILLER_7_221
*351 FILLER_7_225
*352 FILLER_7_263
*353 FILLER_7_27
*354 FILLER_7_275
*355 FILLER_7_279
*356 FILLER_7_281
*357 FILLER_7_3
*358 FILLER_7_39
*359 FILLER_7_57
*360 FILLER_7_69
*361 FILLER_7_77
*362 FILLER_8_114
*363 FILLER_8_122
*364 FILLER_8_145
*365 FILLER_8_15
*366 FILLER_8_153
*367 FILLER_8_157
*368 FILLER_8_165
*369 FILLER_8_191
*370 FILLER_8_195
*371 FILLER_8_197
*372 FILLER_8_226
*373 FILLER_8_232
*374 FILLER_8_253
*375 FILLER_8_264
*376 FILLER_8_27
*377 FILLER_8_276
*378 FILLER_8_29
*379 FILLER_8_3
*380 FILLER_8_41
*381 FILLER_8_69
*382 FILLER_8_81
*383 FILLER_8_85
*384 FILLER_8_97
*385 FILLER_9_10
*386 FILLER_9_102
*387 FILLER_9_110
*388 FILLER_9_113
*389 FILLER_9_121
*390 FILLER_9_133
*391 FILLER_9_141
*392 FILLER_9_153
*393 FILLER_9_159
*394 FILLER_9_167
*395 FILLER_9_169
*396 FILLER_9_173
*397 FILLER_9_178
*398 FILLER_9_190
*399 FILLER_9_201
*400 FILLER_9_209
*401 FILLER_9_216
*402 FILLER_9_225
*403 FILLER_9_248
*404 FILLER_9_26
*405 FILLER_9_265
*406 FILLER_9_273
*407 FILLER_9_281
*408 FILLER_9_29
*409 FILLER_9_45
*410 FILLER_9_53
*411 FILLER_9_57
*412 FILLER_9_64
*413 FILLER_9_76
*414 FILLER_9_83
*415 FILLER_9_85
*416 FILLER_9_97
*417 PHY_EDGE_ROW_0_Left_10
*418 PHY_EDGE_ROW_0_Right_0
*419 PHY_EDGE_ROW_1_Left_11
*420 PHY_EDGE_ROW_1_Right_1
*421 PHY_EDGE_ROW_2_Left_12
*422 PHY_EDGE_ROW_2_Right_2
*423 PHY_EDGE_ROW_3_Left_13
*424 PHY_EDGE_ROW_3_Right_3
*425 PHY_EDGE_ROW_4_Left_14
*426 PHY_EDGE_ROW_4_Right_4
*427 PHY_EDGE_ROW_5_Left_15
*428 PHY_EDGE_ROW_5_Right_5
*429 PHY_EDGE_ROW_6_Left_16
*430 PHY_EDGE_ROW_6_Right_6
*431 PHY_EDGE_ROW_7_Left_17
*432 PHY_EDGE_ROW_7_Right_7
*433 PHY_EDGE_ROW_8_Left_18
*434 PHY_EDGE_ROW_8_Right_8
*435 PHY_EDGE_ROW_9_Left_19
*436 PHY_EDGE_ROW_9_Right_9
*437 TAP_TAPCELL_ROW_0_20
*438 TAP_TAPCELL_ROW_0_21
*439 TAP_TAPCELL_ROW_0_22
*440 TAP_TAPCELL_ROW_0_23
*441 TAP_TAPCELL_ROW_0_24
*442 TAP_TAPCELL_ROW_0_25
*443 TAP_TAPCELL_ROW_0_26
*444 TAP_TAPCELL_ROW_0_27
*445 TAP_TAPCELL_ROW_0_28
*446 TAP_TAPCELL_ROW_0_29
*447 TAP_TAPCELL_ROW_1_30
*448 TAP_TAPCELL_ROW_1_31
*449 TAP_TAPCELL_ROW_1_32
*450 TAP_TAPCELL_ROW_1_33
*451 TAP_TAPCELL_ROW_1_34
*452 TAP_TAPCELL_ROW_2_35
*453 TAP_TAPCELL_ROW_2_36
*454 TAP_TAPCELL_ROW_2_37
*455 TAP_TAPCELL_ROW_2_38
*456 TAP_TAPCELL_ROW_2_39
*457 TAP_TAPCELL_ROW_3_40
*458 TAP_TAPCELL_ROW_3_41
*459 TAP_TAPCELL_ROW_3_42
*460 TAP_TAPCELL_ROW_3_43
*461 TAP_TAPCELL_ROW_3_44
*462 TAP_TAPCELL_ROW_4_45
*463 TAP_TAPCELL_ROW_4_46
*464 TAP_TAPCELL_ROW_4_47
*465 TAP_TAPCELL_ROW_4_48
*466 TAP_TAPCELL_ROW_4_49
*467 TAP_TAPCELL_ROW_5_50
*468 TAP_TAPCELL_ROW_5_51
*469 TAP_TAPCELL_ROW_5_52
*470 TAP_TAPCELL_ROW_5_53
*471 TAP_TAPCELL_ROW_5_54
*472 TAP_TAPCELL_ROW_6_55
*473 TAP_TAPCELL_ROW_6_56
*474 TAP_TAPCELL_ROW_6_57
*475 TAP_TAPCELL_ROW_6_58
*476 TAP_TAPCELL_ROW_6_59
*477 TAP_TAPCELL_ROW_7_60
*478 TAP_TAPCELL_ROW_7_61
*479 TAP_TAPCELL_ROW_7_62
*480 TAP_TAPCELL_ROW_7_63
*481 TAP_TAPCELL_ROW_7_64
*482 TAP_TAPCELL_ROW_8_65
*483 TAP_TAPCELL_ROW_8_66
*484 TAP_TAPCELL_ROW_8_67
*485 TAP_TAPCELL_ROW_8_68
*486 TAP_TAPCELL_ROW_8_69
*487 TAP_TAPCELL_ROW_9_70
*488 TAP_TAPCELL_ROW_9_71
*489 TAP_TAPCELL_ROW_9_72
*490 TAP_TAPCELL_ROW_9_73
*491 TAP_TAPCELL_ROW_9_74
*492 TAP_TAPCELL_ROW_9_75
*493 TAP_TAPCELL_ROW_9_76
*494 TAP_TAPCELL_ROW_9_77
*495 TAP_TAPCELL_ROW_9_78
*496 TAP_TAPCELL_ROW_9_79
*497 _072_
*498 _073_
*499 _074_
*500 _075_
*501 _076_
*502 _077_
*503 _078_
*504 _079_
*505 _080_
*506 _081_
*507 _082_
*508 _083__1
*509 _084_
*510 _085_
*511 _086_
*512 _087_
*513 _088_
*514 _089_
*515 _090_
*516 _091_
*517 _092_
*518 _093_
*519 _094_
*520 _095_
*521 _096_
*522 _097_
*523 _098_
*524 _099_
*525 _100_
*526 _101_
*527 _102_
*528 _103_
*529 _104_
*530 _105_
*531 _106_
*532 _107_
*533 _108_
*534 _109_
*535 _110_
*536 _111_
*537 _112_
*538 _113_
*539 _114_
*540 _115_
*541 _116_
*542 _117_
*543 _118_
*544 _119_
*545 _120_
*546 _121_
*547 _122_
*548 _123_
*549 _124_
*550 _125_
*551 _126_
*552 _127_
*553 _128_
*554 _129_
*555 _130_
*556 _131_
*557 _132_
*558 _133_
*559 _134_
*560 _135_
*561 _136_
*562 _137_
*563 _138_
*564 _139_
*565 _140_
*566 _141_
*567 _142_
*568 _143_
*569 _144_
*570 _145_
*571 _146_
*572 _147_
*573 _148_
*574 _149_
*575 _150_
*576 _151_
*577 _152_
*578 _153_
*579 _154_
*580 _155_
*581 _156_
*582 _157_
*583 _158_
*584 _159_
*585 _160_
*586 _161_
*587 _162_
*588 _163_
*589 _164_
*590 _165_
*591 _166_
*592 _167_
*593 _168_
*594 _169_
*595 _170_
*596 _171_
*597 _172_
*598 clkbuf_0_clk
*599 clkbuf_1_0__f_clk
*600 clkbuf_1_1__f_clk
*601 clkload0
*602 fanout28
*603 fanout31
*604 fanout32
*605 fanout33
*606 fanout34
*607 fanout35
*608 hold1
*609 hold2
*610 hold3
*611 hold4
*612 hold5
*613 hold6
*614 hold7
*615 hold8
*616 input1
*617 input2
*618 max_cap29
*619 output10
*620 output11
*621 output12
*622 output13
*623 output14
*624 output15
*625 output16
*626 output17
*627 output18
*628 output19
*629 output20
*630 output21
*631 output22
*632 output23
*633 output24
*634 output25
*635 output26
*636 output27
*637 output3
*638 output4
*639 output5
*640 output6
*641 output7
*642 output8
*643 output9
*644 wire30

*PORTS
adc_out[0] O
adc_out[1] O
adc_out[2] O
adc_out[3] O
adc_out[4] O
adc_out[5] O
adc_out[6] O
adc_out[7] O
clk I
comp I
comparator_clk O
dac_in[0] O
dac_in[1] O
dac_in[2] O
dac_in[3] O
dac_in[4] O
dac_in[5] O
dac_in[6] O
dac_in[7] O
dac_in_n[0] O
dac_in_n[1] O
dac_in_n[2] O
dac_in_n[3] O
dac_in_n[4] O
dac_in_n[5] O
dac_in_n[6] O
dac_in_n[7] O
rst_n I

*D_NET *3 0.00171016
*CONN
*P adc_out[0] O
*I *637:X O *D sky130_fd_sc_hd__buf_2
*CAP
1 adc_out[0] 0.000333942
2 *637:X 0.000521139
3 *3:10 0.000855081
4 adc_out[0] adc_out[1] 0
*RES
1 *637:X *3:10 47.4354 
2 *3:10 adc_out[0] 9.23573 
*END

*D_NET *4 0.00154616
*CONN
*P adc_out[1] O
*I *638:X O *D sky130_fd_sc_hd__buf_2
*CAP
1 adc_out[1] 0.000773079
2 *638:X 0.000773079
3 adc_out[1] adc_out[2] 0
4 adc_out[0] adc_out[1] 0
*RES
1 *638:X adc_out[1] 49.9995 
*END

*D_NET *5 0.00065318
*CONN
*P adc_out[2] O
*I *639:X O *D sky130_fd_sc_hd__buf_2
*CAP
1 adc_out[2] 0.00032659
2 *639:X 0.00032659
3 adc_out[2] adc_out[3] 0
4 adc_out[1] adc_out[2] 0
*RES
1 *639:X adc_out[2] 47.4504 
*END

*D_NET *6 0.000654828
*CONN
*P adc_out[3] O
*I *640:X O *D sky130_fd_sc_hd__buf_2
*CAP
1 adc_out[3] 0.000327414
2 *640:X 0.000327414
3 adc_out[3] adc_out[4] 0
4 adc_out[2] adc_out[3] 0
*RES
1 *640:X adc_out[3] 47.4504 
*END

*D_NET *7 0.000663012
*CONN
*P adc_out[4] O
*I *641:X O *D sky130_fd_sc_hd__buf_2
*CAP
1 adc_out[4] 0.000331506
2 *641:X 0.000331506
3 adc_out[4] adc_out[5] 0
4 adc_out[3] adc_out[4] 0
*RES
1 *641:X adc_out[4] 47.4504 
*END

*D_NET *8 0.000664223
*CONN
*P adc_out[5] O
*I *642:X O *D sky130_fd_sc_hd__buf_2
*CAP
1 adc_out[5] 0.000332112
2 *642:X 0.000332112
3 adc_out[5] adc_out[6] 0
4 adc_out[5] *111:42 0
5 adc_out[4] adc_out[5] 0
*RES
1 *642:X adc_out[5] 47.4504 
*END

*D_NET *9 0.0010431
*CONN
*P adc_out[6] O
*I *643:X O *D sky130_fd_sc_hd__buf_2
*CAP
1 adc_out[6] 0.000431831
2 *643:X 0.000431831
3 adc_out[6] adc_out[7] 0.000147098
4 adc_out[6] *111:42 0
5 adc_out[6] *128:31 3.23422e-05
6 adc_out[5] adc_out[6] 0
*RES
1 *643:X adc_out[6] 48.4982 
*END

*D_NET *10 0.00170061
*CONN
*P adc_out[7] O
*I *619:X O *D sky130_fd_sc_hd__buf_2
*CAP
1 adc_out[7] 0.000390883
2 *619:X 0.000298422
3 *10:10 0.000689305
4 adc_out[7] comparator_clk 0
5 *10:10 *29:8 7.46212e-05
6 *10:10 *128:31 0.000100284
7 adc_out[6] adc_out[7] 0.000147098
*RES
1 *619:X *10:10 44.2246 
2 *10:10 adc_out[7] 9.75093 
*END

*D_NET *11 0.00992008
*CONN
*P clk I
*I *598:A I *D sky130_fd_sc_hd__clkbuf_16
*CAP
1 clk 0.00432256
2 *598:A 0
3 *11:9 0.00432256
4 *11:9 *531:C 0.000360734
5 *11:9 *538:A_N 0.000177259
6 *11:9 *607:A 0
7 *11:9 *105:8 0.000472855
8 *11:9 *105:17 2.46922e-05
9 *11:9 *106:25 0
10 *11:9 *136:12 0.00023943
11 *11:9 *137:31 0
*RES
1 clk *11:9 39.8324 
2 *11:9 *598:A 38 
*END

*D_NET *12 0.000804464
*CONN
*P comp I
*I *616:A I *D sky130_fd_sc_hd__buf_1
*CAP
1 comp 0.000402232
2 *616:A 0
3 *12:13 0.000402232
*RES
1 comp *12:13 28.3578 
2 *12:13 *616:A 23 
*END

*D_NET *13 0.00202487
*CONN
*P comparator_clk O
*I *620:X O *D sky130_fd_sc_hd__buf_2
*CAP
1 comparator_clk 0.0006971
2 *620:X 0.000315333
3 *13:8 0.00101243
4 *13:8 *28:8 0
5 *13:8 *29:8 0
6 adc_out[7] comparator_clk 0
*RES
1 *620:X *13:8 44.6596 
2 *13:8 comparator_clk 10.5237 
*END

*D_NET *14 0.00144001
*CONN
*P dac_in[0] O
*I *621:X O *D sky130_fd_sc_hd__buf_2
*CAP
1 dac_in[0] 0.000502263
2 *621:X 9.21863e-05
3 *14:8 0.00059445
4 dac_in[0] *30:15 0.000107451
5 dac_in[0] *120:8 0
6 *14:8 *30:15 0.000143655
*RES
1 *621:X *14:8 39.5743 
2 *14:8 dac_in[0] 12.1386 
*END

*D_NET *15 0.00116577
*CONN
*P dac_in[1] O
*I *622:X O *D sky130_fd_sc_hd__buf_2
*CAP
1 dac_in[1] 4.49146e-05
2 *622:X 0.000537971
3 *15:8 0.000582885
*RES
1 *622:X *15:8 49.5896 
2 *15:8 dac_in[1] 1.02536 
*END

*D_NET *16 0.00143205
*CONN
*P dac_in[2] O
*I *623:X O *D sky130_fd_sc_hd__buf_2
*CAP
1 dac_in[2] 0.000569152
2 *623:X 0.00011562
3 *16:8 0.000684773
4 *16:8 *621:A 5.50049e-05
5 *16:8 *113:31 7.49493e-06
*RES
1 *623:X *16:8 39.5743 
2 *16:8 dac_in[2] 12.1386 
*END

*D_NET *17 0.00116577
*CONN
*P dac_in[3] O
*I *624:X O *D sky130_fd_sc_hd__buf_2
*CAP
1 dac_in[3] 4.49146e-05
2 *624:X 0.000537971
3 *17:8 0.000582885
*RES
1 *624:X *17:8 49.5896 
2 *17:8 dac_in[3] 1.02536 
*END

*D_NET *18 0.00116577
*CONN
*P dac_in[4] O
*I *625:X O *D sky130_fd_sc_hd__buf_2
*CAP
1 dac_in[4] 4.49146e-05
2 *625:X 0.000537971
3 *18:8 0.000582885
*RES
1 *625:X *18:8 49.5896 
2 *18:8 dac_in[4] 1.02536 
*END

*D_NET *19 0.00116577
*CONN
*P dac_in[5] O
*I *626:X O *D sky130_fd_sc_hd__buf_2
*CAP
1 dac_in[5] 4.49146e-05
2 *626:X 0.000537971
3 *19:8 0.000582885
*RES
1 *626:X *19:8 49.5896 
2 *19:8 dac_in[5] 1.02536 
*END

*D_NET *20 0.00116577
*CONN
*P dac_in[6] O
*I *627:X O *D sky130_fd_sc_hd__buf_2
*CAP
1 dac_in[6] 4.49146e-05
2 *627:X 0.000537971
3 *20:8 0.000582885
*RES
1 *627:X *20:8 49.5896 
2 *20:8 dac_in[6] 1.02536 
*END

*D_NET *21 0.00116577
*CONN
*P dac_in[7] O
*I *628:X O *D sky130_fd_sc_hd__buf_2
*CAP
1 dac_in[7] 4.49146e-05
2 *628:X 0.000537971
3 *21:8 0.000582885
4 *21:8 *120:16 0
*RES
1 *628:X *21:8 49.5896 
2 *21:8 dac_in[7] 1.02536 
*END

*D_NET *22 0.00118729
*CONN
*P dac_in_n[0] O
*I *629:X O *D sky130_fd_sc_hd__buf_2
*CAP
1 dac_in_n[0] 6.5784e-05
2 *629:X 0.000527861
3 *22:8 0.000593645
4 *22:8 *122:14 0
*RES
1 *629:X *22:8 49.5896 
2 *22:8 dac_in_n[0] 1.50179 
*END

*D_NET *23 0.00119277
*CONN
*P dac_in_n[1] O
*I *630:X O *D sky130_fd_sc_hd__buf_2
*CAP
1 dac_in_n[1] 6.5784e-05
2 *630:X 0.000528285
3 *23:8 0.000594069
4 *23:8 *122:27 4.6318e-06
*RES
1 *630:X *23:8 49.5896 
2 *23:8 dac_in_n[1] 1.50179 
*END

*D_NET *24 0.00154746
*CONN
*P dac_in_n[2] O
*I *631:X O *D sky130_fd_sc_hd__buf_2
*CAP
1 dac_in_n[2] 0.000600781
2 *631:X 0.000137672
3 *24:8 0.000738453
4 *24:8 *118:34 7.05498e-05
*RES
1 *631:X *24:8 40.0507 
2 *24:8 dac_in_n[2] 13.0914 
*END

*D_NET *25 0.00130784
*CONN
*P dac_in_n[3] O
*I *632:X O *D sky130_fd_sc_hd__buf_2
*CAP
1 dac_in_n[3] 0.000559043
2 *632:X 7.6311e-05
3 *25:8 0.000635354
4 *25:8 *118:34 3.71369e-05
*RES
1 *632:X *25:8 39.0979 
2 *25:8 dac_in_n[3] 12.1386 
*END

*D_NET *26 0.00118729
*CONN
*P dac_in_n[4] O
*I *633:X O *D sky130_fd_sc_hd__buf_2
*CAP
1 dac_in_n[4] 6.5784e-05
2 *633:X 0.000527861
3 *26:8 0.000593645
*RES
1 *633:X *26:8 49.5896 
2 *26:8 dac_in_n[4] 1.50179 
*END

*D_NET *27 0.00206833
*CONN
*P dac_in_n[5] O
*I *634:X O *D sky130_fd_sc_hd__buf_2
*CAP
1 dac_in_n[5] 0.000621651
2 *634:X 0.000321664
3 *27:8 0.000943315
4 *27:8 *524:A 7.53384e-06
5 *27:8 *611:A 3.53115e-05
6 *27:8 *118:51 8.47188e-05
7 *27:8 *126:45 5.41385e-05
*RES
1 *634:X *27:8 42.9093 
2 *27:8 dac_in_n[5] 13.5679 
*END

*D_NET *28 0.00118729
*CONN
*P dac_in_n[6] O
*I *635:X O *D sky130_fd_sc_hd__buf_2
*CAP
1 dac_in_n[6] 6.5784e-05
2 *635:X 0.000527861
3 *28:8 0.000593645
4 *13:8 *28:8 0
*RES
1 *635:X *28:8 49.5896 
2 *28:8 dac_in_n[6] 1.50179 
*END

*D_NET *29 0.0011663
*CONN
*P dac_in_n[7] O
*I *636:X O *D sky130_fd_sc_hd__buf_2
*CAP
1 dac_in_n[7] 2.40452e-05
2 *636:X 0.000521795
3 *29:8 0.000545841
4 *10:10 *29:8 7.46212e-05
5 *13:8 *29:8 0
*RES
1 *636:X *29:8 49.5896 
2 *29:8 dac_in_n[7] 0.548929 
*END

*D_NET *30 0.00142087
*CONN
*P rst_n I
*I *617:A I *D sky130_fd_sc_hd__buf_1
*CAP
1 rst_n 0.00056303
2 *617:A 0
3 *30:15 0.00056303
4 *30:15 *621:A 4.37033e-05
5 dac_in[0] *30:15 0.000107451
6 *14:8 *30:15 0.000143655
*RES
1 rst_n *30:15 32.7966 
2 *30:15 *617:A 23 
*END

*D_NET *31 0.00040589
*CONN
*I *577:D I *D sky130_fd_sc_hd__dfxtp_1
*I *509:X O *D sky130_fd_sc_hd__and2b_1
*CAP
1 *577:D 0.000118857
2 *509:X 0.000118857
3 *577:D *509:A_N 0.000168177
*RES
1 *509:X *577:D 48.3873 
*END

*D_NET *32 0.000602542
*CONN
*I *578:D I *D sky130_fd_sc_hd__dfxtp_1
*I *513:X O *D sky130_fd_sc_hd__o211a_1
*CAP
1 *578:D 3.47594e-05
2 *513:X 0.000174063
3 *32:10 0.000208822
4 *578:D *104:51 8.90341e-05
5 *32:10 *513:B1 5.50106e-05
6 *32:10 *81:10 0
7 *32:10 *104:59 4.08537e-05
*RES
1 *513:X *32:10 40.5271 
2 *32:10 *578:D 38.9943 
*END

*D_NET *33 0.000465761
*CONN
*I *579:D I *D sky130_fd_sc_hd__dfxtp_1
*I *515:X O *D sky130_fd_sc_hd__o211a_1
*CAP
1 *579:D 8.45249e-06
2 *515:X 0.000135991
3 *33:10 0.000144443
4 *579:D *104:42 1.64354e-05
5 *33:10 *80:49 1.94812e-05
6 *33:10 *82:14 0.000140958
7 *33:10 *132:8 0
*RES
1 *515:X *33:10 40.5271 
2 *33:10 *579:D 38.1916 
*END

*D_NET *34 0.000401758
*CONN
*I *580:D I *D sky130_fd_sc_hd__dfxtp_1
*I *517:X O *D sky130_fd_sc_hd__o211a_1
*CAP
1 *580:D 1.2998e-05
2 *517:X 0.000150331
3 *34:10 0.000163329
4 *34:10 *517:B1 1.94693e-05
5 *34:10 *104:79 5.56306e-05
*RES
1 *517:X *34:10 40.5271 
2 *34:10 *580:D 38.1916 
*END

*D_NET *35 0.000300261
*CONN
*I *581:D I *D sky130_fd_sc_hd__dfxtp_1
*I *519:X O *D sky130_fd_sc_hd__o211a_1
*CAP
1 *581:D 1.31802e-05
2 *519:X 0.000133459
3 *35:8 0.000146639
4 *35:8 *80:81 0
5 *35:8 *104:59 4.21594e-06
6 *35:8 *112:51 0
7 *35:8 *115:46 2.76611e-06
8 *35:8 *132:29 0
*RES
1 *519:X *35:8 40.2579 
2 *35:8 *581:D 38.1916 
*END

*D_NET *36 0.000286194
*CONN
*I *582:D I *D sky130_fd_sc_hd__dfxtp_1
*I *521:X O *D sky130_fd_sc_hd__o211a_1
*CAP
1 *582:D 1.31802e-05
2 *521:X 9.85004e-05
3 *36:8 0.000111681
4 *36:8 *104:79 4.21594e-06
5 *36:8 *104:88 5.86165e-05
6 *36:8 *130:21 0
*RES
1 *521:X *36:8 40.2579 
2 *36:8 *582:D 38.1916 
*END

*D_NET *37 0.000312012
*CONN
*I *583:D I *D sky130_fd_sc_hd__dfxtp_1
*I *523:X O *D sky130_fd_sc_hd__o211a_1
*CAP
1 *583:D 4.889e-05
2 *523:X 4.889e-05
3 *583:D *583:CLK 3.22879e-05
4 *583:D *128:25 0.00017248
5 *583:D *146:10 9.4636e-06
*RES
1 *523:X *583:D 47.8902 
*END

*D_NET *38 0.000596274
*CONN
*I *584:D I *D sky130_fd_sc_hd__dfxtp_1
*I *525:X O *D sky130_fd_sc_hd__o211a_1
*CAP
1 *584:D 5.46002e-05
2 *525:X 8.47413e-05
3 *38:8 0.000139341
4 *584:D *110:31 0.000147908
5 *38:8 *524:B 0.000169683
6 *38:8 *80:149 0
*RES
1 *525:X *38:8 40.2579 
2 *38:8 *584:D 39.6209 
*END

*D_NET *39 0.00045572
*CONN
*I *610:A I *D sky130_fd_sc_hd__dlygate4sd3_1
*I *527:X O *D sky130_fd_sc_hd__o211a_1
*CAP
1 *610:A 0
2 *527:X 0.00017961
3 *39:10 0.00017961
4 *39:10 *80:59 0
5 *39:10 *116:10 4.23714e-05
6 *39:10 *117:22 5.41288e-05
*RES
1 *527:X *39:10 41.0036 
2 *39:10 *610:A 38 
*END

*D_NET *40 0.000604602
*CONN
*I *586:D I *D sky130_fd_sc_hd__dfxtp_1
*I *540:X O *D sky130_fd_sc_hd__o21a_1
*CAP
1 *586:D 8.00616e-05
2 *540:X 8.00616e-05
3 *586:D *109:8 0.000343776
4 *586:D *112:31 0.000100703
*RES
1 *540:X *586:D 49.7959 
*END

*D_NET *41 0.00152771
*CONN
*I *587:D I *D sky130_fd_sc_hd__dfxtp_1
*I *545:Y O *D sky130_fd_sc_hd__a31oi_1
*CAP
1 *587:D 0.000154388
2 *545:Y 8.83228e-05
3 *41:8 0.000242711
4 *587:D *79:18 0.000135628
5 *587:D *80:15 0.000313244
6 *587:D *80:40 0.00032011
7 *587:D *113:8 0.000103637
8 *41:8 *79:18 0
9 *41:8 *90:20 0.000169665
10 *41:8 *113:18 0
11 *41:8 *113:29 0
*RES
1 *545:Y *41:8 40.2579 
2 *41:8 *587:D 44.8616 
*END

*D_NET *42 0.00211882
*CONN
*I *588:D I *D sky130_fd_sc_hd__dfxtp_1
*I *550:X O *D sky130_fd_sc_hd__o31a_1
*CAP
1 *588:D 0.000518289
2 *550:X 0.000300907
3 *42:8 0.000819195
4 *588:D *114:37 0.000278196
5 *42:8 *549:A_N 0.000192087
6 *42:8 *57:10 0
7 *42:8 *107:54 0
8 *42:8 *109:24 1.01436e-05
*RES
1 *550:X *42:8 43.4271 
2 *42:8 *588:D 48.4659 
*END

*D_NET *43 0.00624689
*CONN
*I *589:D I *D sky130_fd_sc_hd__dfxtp_1
*I *554:X O *D sky130_fd_sc_hd__o21a_1
*CAP
1 *589:D 0.000539681
2 *554:X 7.99831e-05
3 *43:22 0.00186126
4 *43:8 0.00140156
5 *589:D *103:53 0.00113034
6 *589:D *103:59 0.000129006
7 *43:8 *60:88 0
8 *43:8 *71:14 0
9 *43:22 *592:D 0.000102732
10 *43:22 *593:CLK 2.32101e-05
11 *43:22 *593:D 1.64354e-05
12 *43:22 *71:14 0.000110644
13 *43:22 *103:51 0.000753018
14 *43:22 *103:53 9.90162e-05
*RES
1 *554:X *43:8 39.2014 
2 *43:8 *43:22 37.4129 
3 *43:22 *589:D 36.8009 
*END

*D_NET *44 0.00237986
*CONN
*I *590:D I *D sky130_fd_sc_hd__dfxtp_1
*I *558:Y O *D sky130_fd_sc_hd__a31oi_1
*CAP
1 *590:D 0
2 *558:Y 0.000829393
3 *44:10 0.000829393
4 *44:10 *600:A 0.000267173
5 *44:10 *104:10 8.86166e-05
6 *44:10 *104:110 2.32004e-05
7 *44:10 *114:63 0.000342081
*RES
1 *558:Y *44:10 37.443 
2 *44:10 *590:D 23 
*END

*D_NET *45 0.00128388
*CONN
*I *591:D I *D sky130_fd_sc_hd__dfxtp_1
*I *562:Y O *D sky130_fd_sc_hd__a31oi_1
*CAP
1 *591:D 0.000213162
2 *562:Y 7.66722e-05
3 *45:8 0.000289835
4 *591:D *591:CLK 0.000126403
5 *591:D *119:23 2.18506e-05
6 *591:D *119:44 0.00031495
7 *591:D *140:12 0.000169878
8 *45:8 *99:37 1.14452e-05
9 *45:8 *113:29 4.95442e-05
10 *45:8 *124:20 1.01436e-05
11 *45:8 *128:10 0
*RES
1 *562:Y *45:8 39.5536 
2 *45:8 *591:D 43.7016 
*END

*D_NET *46 0.000457872
*CONN
*I *592:D I *D sky130_fd_sc_hd__dfxtp_1
*I *566:X O *D sky130_fd_sc_hd__o31a_1
*CAP
1 *592:D 2.06856e-05
2 *566:X 0.000105518
3 *46:8 0.000126204
4 *592:D *103:51 0.000102732
5 *46:8 *563:B1 0
6 *43:22 *592:D 0.000102732
*RES
1 *566:X *46:8 39.5536 
2 *46:8 *592:D 39.1445 
*END

*D_NET *47 0.00025695
*CONN
*I *593:D I *D sky130_fd_sc_hd__dfxtp_1
*I *568:X O *D sky130_fd_sc_hd__a211o_1
*CAP
1 *593:D 1.11712e-05
2 *568:X 0.000109086
3 *47:8 0.000120257
4 *47:8 *71:14 0
5 *43:22 *593:D 1.64354e-05
*RES
1 *568:X *47:8 39.5536 
2 *47:8 *593:D 38.1916 
*END

*D_NET *48 0.000414098
*CONN
*I *594:D I *D sky130_fd_sc_hd__dfxtp_1
*I *570:X O *D sky130_fd_sc_hd__and3_1
*CAP
1 *594:D 1.99267e-05
2 *570:X 7.55506e-05
3 *48:8 9.54772e-05
4 *594:D *90:22 2.61544e-05
5 *594:D *106:25 8.38361e-05
6 *48:8 *90:45 0.000113153
*RES
1 *570:X *48:8 39.5536 
2 *48:8 *594:D 38.9373 
*END

*D_NET *49 0.000453091
*CONN
*I *595:D I *D sky130_fd_sc_hd__dfxtp_1
*I *572:X O *D sky130_fd_sc_hd__and3_1
*CAP
1 *595:D 5.48656e-06
2 *572:X 0.000169086
3 *49:10 0.000174573
4 *595:D *595:CLK 1.64354e-05
5 *595:D *90:30 7.10068e-06
6 *49:10 *89:16 5.50049e-05
7 *49:10 *103:16 0
8 *49:10 *106:12 2.54046e-05
*RES
1 *572:X *49:10 40.5271 
2 *49:10 *595:D 38.1916 
*END

*D_NET *50 0.000319851
*CONN
*I *596:D I *D sky130_fd_sc_hd__dfxtp_2
*I *574:X O *D sky130_fd_sc_hd__and3_1
*CAP
1 *596:D 6.97381e-05
2 *574:X 8.51925e-05
3 *50:8 0.000154931
4 *596:D *90:30 9.99038e-06
5 *50:8 *96:8 0
6 *50:8 *107:10 0
7 *50:8 *134:28 0
*RES
1 *574:X *50:8 39.2014 
2 *50:8 *596:D 39.3102 
*END

*D_NET *51 0.000814445
*CONN
*I *597:D I *D sky130_fd_sc_hd__dfxtp_1
*I *576:Y O *D sky130_fd_sc_hd__a21oi_1
*CAP
1 *597:D 0.000186163
2 *576:Y 0.00022106
3 *51:8 0.000407223
4 *51:8 *103:73 0
5 *51:8 *133:31 0
*RES
1 *576:Y *51:8 40.9621 
2 *51:8 *597:D 41.0502 
*END

*D_NET *52 0.00207357
*CONN
*I *565:B1 I *D sky130_fd_sc_hd__o211a_1
*I *549:C I *D sky130_fd_sc_hd__and4bb_1
*I *542:X O *D sky130_fd_sc_hd__and4bb_1
*CAP
1 *565:B1 0
2 *549:C 0.00022549
3 *542:X 0
4 *52:19 0.000156817
5 *52:4 0.000382308
6 *549:C *498:A 0.000265472
7 *549:C *542:A_N 9.67842e-05
8 *549:C *542:D 5.50049e-05
9 *549:C *94:18 5.76005e-05
10 *549:C *115:18 0.000413808
11 *549:C *129:82 5.3304e-05
12 *52:19 *498:A 9.67842e-05
13 *52:19 *565:A1 0.000100625
14 *52:19 *114:37 6.08751e-05
15 *52:19 *129:82 8.60475e-05
16 *52:19 *129:95 2.26489e-05
*RES
1 *542:X *52:4 23 
2 *52:4 *549:C 29.815 
3 *52:4 *52:19 34.06 
4 *52:19 *565:B1 23 
*END

*D_NET *53 0.00166335
*CONN
*I *545:A2 I *D sky130_fd_sc_hd__a31oi_1
*I *543:X O *D sky130_fd_sc_hd__or4_1
*CAP
1 *545:A2 0
2 *543:X 0.000468394
3 *53:8 0.000468394
4 *53:8 *510:A 5.12254e-05
5 *53:8 *510:C 5.67058e-05
6 *53:8 *530:B 2.61526e-05
7 *53:8 *545:A3 3.22879e-05
8 *53:8 *79:8 0.000182786
9 *53:8 *135:16 4.6595e-05
10 *53:8 *137:31 0.000330811
*RES
1 *543:X *53:8 33.5229 
2 *53:8 *545:A2 23 
*END

*D_NET *54 0.000373113
*CONN
*I *545:A3 I *D sky130_fd_sc_hd__a31oi_1
*I *544:Y O *D sky130_fd_sc_hd__nand3_1
*CAP
1 *545:A3 1.24964e-05
2 *544:Y 7.45422e-05
3 *54:8 8.70386e-05
4 *545:A3 *79:8 5.50106e-05
5 *54:8 *101:10 4.23817e-05
6 *54:8 *112:62 6.93553e-05
7 *53:8 *545:A3 3.22879e-05
*RES
1 *544:Y *54:8 39.9057 
2 *54:8 *545:A3 38.6214 
*END

*D_NET *55 0.00138152
*CONN
*I *550:A1 I *D sky130_fd_sc_hd__o31a_1
*I *546:X O *D sky130_fd_sc_hd__o41a_1
*CAP
1 *550:A1 0
2 *546:X 0.000238668
3 *55:8 0.000238668
4 *55:8 *537:A_N 2.93845e-05
5 *55:8 *537:B 1.40958e-05
6 *55:8 *540:B1 1.32939e-05
7 *55:8 *550:A2 5.50049e-05
8 *55:8 *550:A3 7.38136e-05
9 *55:8 *98:10 5.12254e-05
10 *55:8 *100:16 0.000641072
11 *55:8 *134:43 2.62931e-05
*RES
1 *546:X *55:8 30.3121 
2 *55:8 *550:A1 23 
*END

*D_NET *56 0.00661572
*CONN
*I *548:B I *D sky130_fd_sc_hd__and2_1
*I *551:A2 I *D sky130_fd_sc_hd__a21oi_1
*I *553:A3 I *D sky130_fd_sc_hd__a32o_1
*I *567:A1 I *D sky130_fd_sc_hd__a21oi_1
*I *564:A I *D sky130_fd_sc_hd__and2_1
*I *547:Y O *D sky130_fd_sc_hd__nor3b_2
*CAP
1 *548:B 0
2 *551:A2 0.000118264
3 *553:A3 0
4 *567:A1 0
5 *564:A 0
6 *547:Y 0.000160114
7 *56:40 0.000180437
8 *56:33 6.21193e-05
9 *56:25 0.000610438
10 *56:14 0.00132642
11 *56:8 0.00100039
12 *551:A2 *551:A1 0.000223692
13 *551:A2 *551:B1 4.00259e-06
14 *551:A2 *553:B2 3.22879e-05
15 *551:A2 *59:10 1.73274e-05
16 *551:A2 *60:103 2.39868e-05
17 *551:A2 *78:67 4.77246e-05
18 *56:8 *107:54 0.00014196
19 *56:14 *547:A 2.32004e-05
20 *56:14 *565:A2 0.000479335
21 *56:14 *565:C1 7.39994e-05
22 *56:14 *566:A2 2.9938e-05
23 *56:14 *566:A3 0.000268873
24 *56:14 *566:B1 9.91798e-05
25 *56:14 *568:A2 4.03216e-05
26 *56:14 *60:27 2.93845e-05
27 *56:14 *89:99 4.34973e-05
28 *56:14 *107:54 4.39607e-05
29 *56:14 *114:37 0.000572477
30 *56:25 *554:A2 1.41077e-05
31 *56:25 *568:A2 0.000379852
32 *56:25 *59:10 1.32314e-05
33 *56:25 *78:67 0
34 *56:25 *89:99 0.000249617
35 *56:33 *60:88 0.000114776
36 *56:33 *89:99 7.11824e-06
37 *56:33 *120:16 5.58694e-05
38 *56:40 *59:10 0.000127821
*RES
1 *547:Y *56:8 25.9 
2 *56:8 *56:14 19.5957 
3 *56:14 *564:A 23 
4 *56:14 *56:25 11.745 
5 *56:25 *56:33 32.0507 
6 *56:33 *567:A1 23 
7 *56:25 *56:40 1.57429 
8 *56:40 *553:A3 23 
9 *56:40 *551:A2 26.9979 
10 *56:8 *548:B 23 
*END

*D_NET *57 0.000838755
*CONN
*I *550:A2 I *D sky130_fd_sc_hd__o31a_1
*I *548:X O *D sky130_fd_sc_hd__and2_1
*CAP
1 *550:A2 1.33941e-05
2 *548:X 0.000333309
3 *57:10 0.000346703
4 *550:A2 *540:B1 1.76557e-05
5 *550:A2 *550:A3 7.53384e-06
6 *57:10 *550:B1 1.01436e-05
7 *57:10 *107:27 0
8 *57:10 *107:54 0
9 *57:10 *109:24 0
10 *57:10 *114:37 5.50106e-05
11 *42:8 *57:10 0
12 *55:8 *550:A2 5.50049e-05
*RES
1 *548:X *57:10 43.3443 
2 *57:10 *550:A2 38.6214 
*END

*D_NET *58 0.000946665
*CONN
*I *550:A3 I *D sky130_fd_sc_hd__o31a_1
*I *549:X O *D sky130_fd_sc_hd__and4bb_1
*CAP
1 *550:A3 0.00013047
2 *549:X 7.95781e-05
3 *58:8 0.000210048
4 *550:A3 *540:B1 5.50049e-05
5 *58:8 *542:A_N 0.000191157
6 *58:8 *107:27 0.000188916
7 *58:8 *107:54 1.01436e-05
8 *550:A2 *550:A3 7.53384e-06
9 *55:8 *550:A3 7.38136e-05
*RES
1 *549:X *58:8 40.61 
2 *58:8 *550:A3 40.5271 
*END

*D_NET *59 0.00124975
*CONN
*I *554:A1 I *D sky130_fd_sc_hd__o21a_1
*I *551:Y O *D sky130_fd_sc_hd__a21oi_1
*CAP
1 *554:A1 0
2 *551:Y 0.000363287
3 *59:10 0.000363287
4 *59:10 *554:A2 3.22879e-05
5 *59:10 *78:67 0.000332507
6 *551:A2 *59:10 1.73274e-05
7 *56:25 *59:10 1.32314e-05
8 *56:40 *59:10 0.000127821
*RES
1 *551:Y *59:10 29.8564 
2 *59:10 *554:A1 23 
*END

*D_NET *60 0.011806
*CONN
*I *553:B1 I *D sky130_fd_sc_hd__a32o_1
*I *567:A2 I *D sky130_fd_sc_hd__a21oi_1
*I *557:A2 I *D sky130_fd_sc_hd__a21o_1
*I *559:A2 I *D sky130_fd_sc_hd__a21o_1
*I *561:C I *D sky130_fd_sc_hd__nand3_1
*I *556:B I *D sky130_fd_sc_hd__nand2_1
*I *564:B I *D sky130_fd_sc_hd__and2_1
*I *555:C_N I *D sky130_fd_sc_hd__or3b_1
*I *552:Y O *D sky130_fd_sc_hd__nor2_2
*CAP
1 *553:B1 0
2 *567:A2 0
3 *557:A2 7.21097e-06
4 *559:A2 0
5 *561:C 0
6 *556:B 0.000186661
7 *564:B 0
8 *555:C_N 0
9 *552:Y 0
10 *60:103 0.000296084
11 *60:88 0.000702818
12 *60:70 0.000273915
13 *60:51 0.0003944
14 *60:36 0.00104247
15 *60:27 0.000387095
16 *60:14 0.000250318
17 *60:6 0.00122049
18 *60:4 0.00171792
19 *556:B *63:10 5.31444e-05
20 *556:B *99:21 0.000185428
21 *556:B *99:27 0
22 *556:B *111:14 4.95081e-05
23 *556:B *113:29 5.26101e-05
24 *556:B *114:55 0.000249852
25 *557:A2 *557:A1 5.67058e-05
26 *557:A2 *128:10 2.4754e-05
27 *60:6 *62:12 0.00103499
28 *60:6 *133:74 2.02872e-05
29 *60:14 *89:76 0.000191157
30 *60:14 *129:80 0
31 *60:14 *133:74 0.000121021
32 *60:27 *563:A1 0
33 *60:27 *568:A2 5.50106e-05
34 *60:27 *62:8 3.70187e-05
35 *60:27 *89:76 0
36 *60:27 *89:99 4.6318e-06
37 *60:27 *103:49 0
38 *60:27 *107:60 7.20652e-05
39 *60:36 *62:12 0.00128281
40 *60:51 *63:10 2.96154e-05
41 *60:51 *64:10 3.29039e-05
42 *60:51 *99:48 4.77164e-06
43 *60:51 *113:29 5.80319e-05
44 *60:51 *115:30 1.85961e-05
45 *60:70 *557:A1 8.71888e-05
46 *60:70 *557:B1 0
47 *60:70 *64:10 3.95671e-05
48 *60:70 *78:92 7.57281e-06
49 *60:70 *99:48 5.4264e-05
50 *60:70 *115:30 1.63382e-05
51 *60:70 *126:20 0.000135143
52 *60:70 *128:10 0.000180224
53 *60:88 *560:B 0.000135472
54 *60:88 *607:A 2.9562e-05
55 *60:88 *71:14 0
56 *60:88 *90:45 0
57 *60:88 *107:72 0.000138718
58 *60:88 *107:74 6.16531e-05
59 *60:88 *120:16 3.23267e-05
60 *60:88 *135:20 0.000124281
61 *60:88 *135:33 2.70366e-05
62 *60:103 *551:A1 1.45549e-05
63 *60:103 *567:B1 0.000183733
64 *60:103 *71:14 0.000107464
65 *60:103 *78:59 2.26406e-05
66 *60:103 *78:67 1.45295e-05
67 *60:103 *112:62 0
68 *60:103 *119:23 0.000111288
69 *60:103 *120:16 0
70 *551:A2 *60:103 2.39868e-05
71 *43:8 *60:88 0
72 *56:14 *60:27 2.93845e-05
73 *56:33 *60:88 0.000114776
*RES
1 *552:Y *60:4 23 
2 *60:4 *60:6 12.0557 
3 *60:6 *60:14 35.1371 
4 *60:14 *555:C_N 23 
5 *60:6 *60:27 37.105 
6 *60:27 *564:B 23 
7 *60:4 *60:36 29.4379 
8 *60:36 *556:B 43.7586 
9 *60:36 *60:51 2.96214 
10 *60:51 *561:C 38 
11 *60:51 *60:70 21.6286 
12 *60:70 *559:A2 23 
13 *60:70 *557:A2 23.6214 
14 *60:4 *60:88 38.9486 
15 *60:88 *567:A2 23 
16 *60:88 *60:103 36.3696 
17 *60:103 *553:B1 23 
*END

*D_NET *61 0.000196712
*CONN
*I *554:A2 I *D sky130_fd_sc_hd__o21a_1
*I *553:X O *D sky130_fd_sc_hd__a32o_1
*CAP
1 *554:A2 7.5158e-05
2 *553:X 7.5158e-05
3 *56:25 *554:A2 1.41077e-05
4 *59:10 *554:A2 3.22879e-05
*RES
1 *553:X *554:A2 47.0979 
*END

*D_NET *62 0.00562024
*CONN
*I *558:A1 I *D sky130_fd_sc_hd__a31oi_1
*I *555:X O *D sky130_fd_sc_hd__or3b_1
*CAP
1 *558:A1 0
2 *555:X 0.000108957
3 *62:12 0.000640448
4 *62:8 0.000749405
5 *62:8 *563:A1 0
6 *62:8 *89:76 0
7 *62:8 *93:25 0
8 *62:12 *558:B1 0.000182832
9 *62:12 *599:A 0.00053901
10 *62:12 *600:A 0.00013498
11 *62:12 *133:74 0.000909782
12 *60:6 *62:12 0.00103499
13 *60:27 *62:8 3.70187e-05
14 *60:36 *62:12 0.00128281
*RES
1 *555:X *62:8 39.9057 
2 *62:8 *62:12 41.3486 
3 *62:12 *558:A1 23 
*END

*D_NET *63 0.000697044
*CONN
*I *558:A2 I *D sky130_fd_sc_hd__a31oi_1
*I *556:Y O *D sky130_fd_sc_hd__nand2_1
*CAP
1 *558:A2 0
2 *556:Y 0.000191365
3 *63:10 0.000191365
4 *63:10 *64:10 1.14452e-05
5 *63:10 *99:27 7.90568e-05
6 *63:10 *114:55 0.000141052
7 *556:B *63:10 5.31444e-05
8 *60:51 *63:10 2.96154e-05
*RES
1 *556:Y *63:10 41.8321 
2 *63:10 *558:A2 38 
*END

*D_NET *64 0.00172425
*CONN
*I *558:A3 I *D sky130_fd_sc_hd__a31oi_1
*I *557:X O *D sky130_fd_sc_hd__a21o_1
*CAP
1 *558:A3 0
2 *557:X 0.000403467
3 *64:10 0.000403467
4 *64:10 *99:27 0.000342115
5 *64:10 *115:30 4.82774e-05
6 *64:10 *126:20 8.62876e-05
7 *64:10 *128:10 0.000356724
8 *60:51 *64:10 3.29039e-05
9 *60:70 *64:10 3.95671e-05
10 *63:10 *64:10 1.14452e-05
*RES
1 *557:X *64:10 46.6793 
2 *64:10 *558:A3 38 
*END

*D_NET *65 0.000634089
*CONN
*I *562:A1 I *D sky130_fd_sc_hd__a31oi_1
*I *559:X O *D sky130_fd_sc_hd__a21o_1
*CAP
1 *562:A1 0.000105004
2 *559:X 0.000105004
3 *562:A1 *557:A1 0.000108826
4 *562:A1 *562:B1 5.3304e-05
5 *562:A1 *128:10 0.000261951
*RES
1 *559:X *562:A1 49.0036 
*END

*D_NET *66 0.00191447
*CONN
*I *562:A2 I *D sky130_fd_sc_hd__a31oi_1
*I *560:X O *D sky130_fd_sc_hd__or4_1
*CAP
1 *562:A2 0
2 *560:X 0.000498104
3 *66:10 0.000498104
4 *66:10 *541:A1 4.39607e-05
5 *66:10 *67:10 0.000217174
6 *66:10 *122:14 8.49194e-05
7 *66:10 *124:20 0.00018534
8 *66:10 *129:125 0.000114487
9 *66:10 *135:33 0.000143655
10 *66:10 *135:46 0.000128723
*RES
1 *560:X *66:10 49.3307 
2 *66:10 *562:A2 38 
*END

*D_NET *67 0.00101035
*CONN
*I *562:A3 I *D sky130_fd_sc_hd__a31oi_1
*I *561:Y O *D sky130_fd_sc_hd__nand3_1
*CAP
1 *562:A3 0
2 *561:Y 0.000268362
3 *67:10 0.000268362
4 *67:10 *541:A1 9.24795e-06
5 *67:10 *122:14 5.10884e-05
6 *67:10 *124:20 0.000135037
7 *67:10 *128:10 6.10775e-05
8 *66:10 *67:10 0.000217174
*RES
1 *561:Y *67:10 42.785 
2 *67:10 *562:A3 38 
*END

*D_NET *68 0.000555222
*CONN
*I *566:A1 I *D sky130_fd_sc_hd__o31a_1
*I *563:X O *D sky130_fd_sc_hd__o41a_1
*CAP
1 *566:A1 0
2 *563:X 0.000205984
3 *68:10 0.000205984
4 *68:10 *563:B1 0
5 *68:10 *565:C1 4.30739e-05
6 *68:10 *134:108 0.00010018
*RES
1 *563:X *68:10 41.3557 
2 *68:10 *566:A1 38 
*END

*D_NET *69 0.00227231
*CONN
*I *568:A2 I *D sky130_fd_sc_hd__a211o_1
*I *566:A2 I *D sky130_fd_sc_hd__o31a_1
*I *564:X O *D sky130_fd_sc_hd__and2_1
*CAP
1 *568:A2 0.000132508
2 *566:A2 0.000129036
3 *564:X 0
4 *69:4 0.000261544
5 *566:A2 *565:C1 0
6 *566:A2 *566:A3 3.22879e-05
7 *566:A2 *566:B1 0.000182826
8 *566:A2 *89:99 0.000149181
9 *566:A2 *107:54 0.000319156
10 *568:A2 *89:99 0.000560644
11 *56:14 *566:A2 2.9938e-05
12 *56:14 *568:A2 4.03216e-05
13 *56:25 *568:A2 0.000379852
14 *60:27 *568:A2 5.50106e-05
*RES
1 *564:X *69:4 23 
2 *69:4 *566:A2 27.93 
3 *69:4 *568:A2 30.4571 
*END

*D_NET *70 0.000567531
*CONN
*I *566:A3 I *D sky130_fd_sc_hd__o31a_1
*I *565:X O *D sky130_fd_sc_hd__o211a_1
*CAP
1 *566:A3 6.94544e-05
2 *565:X 6.94544e-05
3 *566:A3 *565:C1 5.50049e-05
4 *566:A3 *107:54 7.24555e-05
5 *566:A2 *566:A3 3.22879e-05
6 *56:14 *566:A3 0.000268873
*RES
1 *565:X *566:A3 49.0036 
*END

*D_NET *71 0.00123406
*CONN
*I *568:B1 I *D sky130_fd_sc_hd__a211o_1
*I *567:Y O *D sky130_fd_sc_hd__a21oi_1
*CAP
1 *568:B1 0
2 *567:Y 0.000397334
3 *71:14 0.000397334
4 *71:14 *78:40 4.77164e-06
5 *71:14 *78:59 9.85586e-06
6 *71:14 *90:45 1.05441e-05
7 *71:14 *119:23 0.000196108
8 *43:8 *71:14 0
9 *43:22 *71:14 0.000110644
10 *47:8 *71:14 0
11 *60:88 *71:14 0
12 *60:103 *71:14 0.000107464
*RES
1 *567:Y *71:14 46.7363 
2 *71:14 *568:B1 38 
*END

*D_NET *72 0.000338408
*CONN
*I *570:C I *D sky130_fd_sc_hd__and3_1
*I *569:X O *D sky130_fd_sc_hd__or2_1
*CAP
1 *570:C 9.35964e-05
2 *569:X 9.35964e-05
3 *570:C *89:6 9.45097e-05
4 *570:C *89:16 5.67058e-05
*RES
1 *569:X *570:C 47.6571 
*END

*D_NET *73 0.000316862
*CONN
*I *572:C I *D sky130_fd_sc_hd__and3_1
*I *571:X O *D sky130_fd_sc_hd__a21o_1
*CAP
1 *572:C 9.57326e-05
2 *571:X 9.57326e-05
3 *572:C *572:A 5.67058e-05
4 *572:C *89:16 5.10353e-05
5 *572:C *136:40 1.76557e-05
*RES
1 *571:X *572:C 47.6571 
*END

*D_NET *74 0.0016257
*CONN
*I *574:C I *D sky130_fd_sc_hd__and3_1
*I *573:Y O *D sky130_fd_sc_hd__nand2_1
*CAP
1 *574:C 0
2 *573:Y 0.000385095
3 *74:10 0.000385095
4 *74:10 *534:D 0.000136738
5 *74:10 *95:6 2.93181e-05
6 *74:10 *95:10 2.46183e-06
7 *74:10 *129:43 0.00023032
8 *74:10 *133:23 0
9 *74:10 *134:28 1.03955e-05
10 *74:10 *136:54 0.000446281
*RES
1 *573:Y *74:10 32.9221 
2 *74:10 *574:C 23 
*END

*D_NET *75 0.000265915
*CONN
*I *576:A2 I *D sky130_fd_sc_hd__a21oi_1
*I *575:Y O *D sky130_fd_sc_hd__nand2_1
*CAP
1 *576:A2 3.60782e-05
2 *575:Y 3.60782e-05
3 *576:A2 *576:A1 9.75779e-05
4 *576:A2 *103:73 9.61805e-05
*RES
1 *575:Y *576:A2 47.595 
*END

*D_NET *76 0.00517021
*CONN
*I *543:B I *D sky130_fd_sc_hd__or4_1
*I *565:A1 I *D sky130_fd_sc_hd__o211a_1
*I *546:A2 I *D sky130_fd_sc_hd__o41a_1
*I *573:A I *D sky130_fd_sc_hd__nand2_1
*I *497:Y O *D sky130_fd_sc_hd__inv_2
*CAP
1 *543:B 0.000236643
2 *565:A1 0.000387216
3 *546:A2 4.25104e-05
4 *573:A 0.000166441
5 *497:Y 0
6 *76:19 0.000741803
7 *76:8 0.000982305
8 *76:4 0.000740431
9 *543:B *91:8 0.0002263
10 *546:A2 *134:93 5.50049e-05
11 *565:A1 *507:A 0
12 *565:A1 *539:B1 3.6407e-05
13 *565:A1 *565:C1 0
14 *565:A1 *94:42 2.88541e-05
15 *565:A1 *100:8 2.5415e-05
16 *565:A1 *114:37 0
17 *565:A1 *114:45 0
18 *565:A1 *115:30 2.05503e-05
19 *565:A1 *134:93 0.00023462
20 *573:A *93:12 2.27474e-05
21 *573:A *129:43 3.70094e-05
22 *573:A *129:80 0
23 *573:A *134:39 0
24 *573:A *136:69 0
25 *76:8 *89:33 0.00065935
26 *76:8 *108:21 0.000425979
27 *76:19 *555:A 0
28 *76:19 *129:80 0
29 *76:19 *134:39 0
30 *52:19 *565:A1 0.000100625
*RES
1 *497:Y *76:4 23 
2 *76:4 *76:8 28.9614 
3 *76:8 *573:A 40.61 
4 *76:8 *76:19 5.42714 
5 *76:19 *546:A2 38.6214 
6 *76:19 *565:A1 45.4571 
7 *76:4 *543:B 27.4536 
*END

*D_NET *77 0.000224196
*CONN
*I *539:A1 I *D sky130_fd_sc_hd__o2111a_1
*I *498:Y O *D sky130_fd_sc_hd__inv_2
*CAP
1 *539:A1 1.19175e-05
2 *498:Y 1.19175e-05
3 *539:A1 *498:A 0.00010018
4 *539:A1 *129:80 0.00010018
*RES
1 *498:Y *539:A1 47.0979 
*END

*D_NET *78 0.01104
*CONN
*I *553:A1 I *D sky130_fd_sc_hd__a32o_1
*I *561:A I *D sky130_fd_sc_hd__nand3_1
*I *544:A I *D sky130_fd_sc_hd__nand3_1
*I *568:A1 I *D sky130_fd_sc_hd__a211o_1
*I *565:C1 I *D sky130_fd_sc_hd__o211a_1
*I *539:A2 I *D sky130_fd_sc_hd__o2111a_1
*I *507:Y O *D sky130_fd_sc_hd__inv_2
*CAP
1 *553:A1 0
2 *561:A 0
3 *544:A 0.000197219
4 *568:A1 0
5 *565:C1 0.00029363
6 *539:A2 0
7 *507:Y 0
8 *78:92 0.000279162
9 *78:67 0.000777529
10 *78:59 0.00087756
11 *78:40 0.00160832
12 *78:10 0.000495165
13 *78:4 0.00123344
14 *544:A *544:B 0.000396264
15 *544:A *562:B1 0
16 *544:A *94:70 7.43244e-05
17 *544:A *101:10 0.000372179
18 *544:A *122:14 2.14441e-05
19 *565:C1 *539:B1 1.22803e-05
20 *565:C1 *563:B1 0
21 *565:C1 *565:A2 8.72482e-05
22 *565:C1 *94:42 2.98663e-05
23 *565:C1 *107:54 0.000312219
24 *565:C1 *134:108 4.86681e-05
25 *78:10 *539:B1 2.11647e-05
26 *78:10 *546:A4 0.000143655
27 *78:10 *91:42 0
28 *78:10 *129:80 0
29 *78:10 *134:93 2.36844e-05
30 *78:10 *134:108 9.28078e-06
31 *78:40 *546:A4 0.000256544
32 *78:40 *90:45 0.00014669
33 *78:40 *91:27 0.000824528
34 *78:40 *103:49 0
35 *78:40 *107:118 0
36 *78:59 *551:A1 2.26406e-05
37 *78:59 *94:42 0.000313604
38 *78:59 *94:46 1.05441e-05
39 *78:59 *120:35 0.000162955
40 *78:67 *553:B2 0.000141954
41 *78:67 *557:A1 0.000255642
42 *78:67 *94:70 9.9756e-05
43 *78:67 *122:14 6.85594e-05
44 *78:92 *99:48 2.05503e-05
45 *78:92 *115:30 0.000535406
46 *78:92 *120:35 0.000179007
47 *78:92 *124:20 7.55908e-05
48 *551:A2 *78:67 4.77246e-05
49 *565:A1 *565:C1 0
50 *566:A2 *565:C1 0
51 *566:A3 *565:C1 5.50049e-05
52 *56:14 *565:C1 7.39994e-05
53 *56:25 *78:67 0
54 *59:10 *78:67 0.000332507
55 *60:70 *78:92 7.57281e-06
56 *60:103 *78:59 2.26406e-05
57 *60:103 *78:67 1.45295e-05
58 *68:10 *565:C1 4.30739e-05
59 *71:14 *78:40 4.77164e-06
60 *71:14 *78:59 9.85586e-06
*RES
1 *507:Y *78:4 23 
2 *78:4 *78:10 18.48 
3 *78:10 *539:A2 38 
4 *78:10 *565:C1 46.41 
5 *78:4 *78:40 32.1307 
6 *78:40 *568:A1 38 
7 *78:40 *78:59 33.1579 
8 *78:59 *78:67 23.7932 
9 *78:67 *544:A 44.3075 
10 *78:67 *78:92 33.9995 
11 *78:92 *561:A 23 
12 *78:59 *553:A1 23 
*END

*D_NET *79 0.00412679
*CONN
*I *644:A I *D sky130_fd_sc_hd__buf_1
*I *510:Y O *D sky130_fd_sc_hd__nor4b_1
*CAP
1 *644:A 0
2 *510:Y 0.00054467
3 *79:18 0.000866601
4 *79:8 0.00141127
5 *79:8 *90:10 5.3304e-05
6 *79:8 *90:12 0.000185428
7 *79:8 *90:20 5.50106e-05
8 *79:8 *135:16 1.32314e-05
9 *79:8 *137:31 2.07242e-05
10 *79:18 *80:40 0.000209454
11 *79:18 *80:49 0.000119313
12 *79:18 *90:20 0
13 *79:18 *90:59 3.47781e-05
14 *79:18 *104:10 0
15 *79:18 *113:8 5.50049e-05
16 *79:18 *113:18 0
17 *79:18 *113:29 0.000184572
18 *545:A3 *79:8 5.50106e-05
19 *587:D *79:18 0.000135628
20 *41:8 *79:18 0
21 *53:8 *79:8 0.000182786
*RES
1 *510:Y *79:8 48.15 
2 *79:8 *79:18 43.9614 
3 *79:18 *644:A 38 
*END

*D_NET *80 0.0159211
*CONN
*I *525:A2 I *D sky130_fd_sc_hd__o211a_1
*I *523:A2 I *D sky130_fd_sc_hd__o211a_1
*I *521:A2 I *D sky130_fd_sc_hd__o211a_1
*I *517:A2 I *D sky130_fd_sc_hd__o211a_1
*I *519:A2 I *D sky130_fd_sc_hd__o211a_1
*I *513:A2 I *D sky130_fd_sc_hd__o211a_1
*I *527:A2 I *D sky130_fd_sc_hd__o211a_1
*I *515:A2 I *D sky130_fd_sc_hd__o211a_1
*I *529:B I *D sky130_fd_sc_hd__nand2_2
*I *528:B I *D sky130_fd_sc_hd__and2_2
*I *511:X O *D sky130_fd_sc_hd__or4b_4
*CAP
1 *525:A2 0
2 *523:A2 0
3 *521:A2 0
4 *517:A2 0
5 *519:A2 0
6 *513:A2 2.0995e-05
7 *527:A2 0
8 *515:A2 1.45778e-05
9 *529:B 0
10 *528:B 0.000320096
11 *511:X 0
12 *80:149 0.000432757
13 *80:130 0.000663438
14 *80:115 0.000409225
15 *80:104 0.000107388
16 *80:98 0.000625924
17 *80:81 0.000575128
18 *80:66 0.000305113
19 *80:59 0.000836897
20 *80:49 0.00141185
21 *80:40 0.000714687
22 *80:23 0.000202064
23 *80:15 0.000825609
24 *80:4 0.000769503
25 *513:A2 *513:B1 1.14154e-05
26 *515:A2 *515:B1 1.08003e-05
27 *528:B *511:D_N 1.76557e-05
28 *528:B *528:A 0.000143655
29 *528:B *136:25 2.47094e-05
30 *528:B *137:31 0.00038606
31 *80:15 *113:18 5.50106e-05
32 *80:15 *137:31 5.67058e-05
33 *80:23 *90:10 5.50106e-05
34 *80:23 *113:18 8.72173e-05
35 *80:23 *113:29 0.000184572
36 *80:23 *137:31 5.50106e-05
37 *80:40 *515:B1 1.57571e-05
38 *80:40 *587:CLK 8.55223e-05
39 *80:40 *113:18 0.000412801
40 *80:49 *515:B1 4.67488e-05
41 *80:59 *503:A 7.87406e-05
42 *80:59 *509:B 0.000690325
43 *80:59 *513:C1 0.000188344
44 *80:59 *88:10 0.000145551
45 *80:59 *112:51 5.34681e-05
46 *80:59 *116:10 0
47 *80:59 *116:31 0
48 *80:59 *120:35 0
49 *80:66 *513:B1 3.22879e-05
50 *80:81 *513:B1 9.90162e-05
51 *80:81 *112:51 5.10062e-05
52 *80:81 *115:46 8.62876e-05
53 *80:98 *518:A 0.000171734
54 *80:98 *518:B 5.50049e-05
55 *80:98 *519:B1 0.000197208
56 *80:98 *640:A 4.08664e-05
57 *80:98 *130:8 0.000484539
58 *80:98 *137:87 0.000156349
59 *80:98 *149:12 0.000270682
60 *80:104 *114:69 0.000218952
61 *80:104 *137:93 5.33546e-05
62 *80:104 *137:104 5.94125e-05
63 *80:115 *640:A 9.41704e-05
64 *80:115 *104:79 0.000222113
65 *80:115 *104:88 0.000240695
66 *80:115 *114:69 0.000408138
67 *80:115 *130:8 8.34394e-05
68 *80:115 *137:104 1.94522e-05
69 *80:115 *137:113 4.21594e-06
70 *80:130 *104:88 0.000376261
71 *80:130 *126:14 0.000136486
72 *80:130 *128:25 0
73 *80:130 *137:113 7.28335e-05
74 *80:149 *524:B 0
75 *80:149 *525:C1 0
76 *80:149 *583:CLK 2.93845e-05
77 *80:149 *584:CLK 0.000100201
78 *80:149 *128:25 0.000135037
79 *587:D *80:15 0.000313244
80 *587:D *80:40 0.00032011
81 *33:10 *80:49 1.94812e-05
82 *35:8 *80:81 0
83 *38:8 *80:149 0
84 *39:10 *80:59 0
85 *79:18 *80:40 0.000209454
86 *79:18 *80:49 0.000119313
*RES
1 *511:X *80:4 23 
2 *80:4 *528:B 30.3121 
3 *80:4 *80:15 8.72071 
4 *80:15 *80:23 34.2879 
5 *80:23 *529:B 23 
6 *80:15 *80:40 8.94857 
7 *80:40 *515:A2 23.4971 
8 *80:40 *80:49 10.15 
9 *80:49 *80:59 47.9386 
10 *80:59 *527:A2 23 
11 *80:49 *80:66 1.09786 
12 *80:66 *513:A2 23.4971 
13 *80:66 *80:81 35.0129 
14 *80:81 *519:A2 23 
15 *80:81 *80:98 12.8843 
16 *80:98 *80:104 32.9621 
17 *80:104 *517:A2 23 
18 *80:98 *80:115 22.2293 
19 *80:115 *521:A2 38 
20 *80:115 *80:130 21.5457 
21 *80:130 *523:A2 23 
22 *80:130 *80:149 38.265 
23 *80:149 *525:A2 23 
*END

*D_NET *81 0.00128841
*CONN
*I *513:B1 I *D sky130_fd_sc_hd__o211a_1
*I *512:X O *D sky130_fd_sc_hd__or2_1
*CAP
1 *513:B1 0.000221462
2 *512:X 0.0002874
3 *81:10 0.000508861
4 *81:10 *104:59 5.56203e-05
5 *81:10 *132:29 0
6 *81:10 *142:25 1.73399e-05
7 *513:A2 *513:B1 1.14154e-05
8 *32:10 *513:B1 5.50106e-05
9 *32:10 *81:10 0
10 *80:66 *513:B1 3.22879e-05
11 *80:81 *513:B1 9.90162e-05
*RES
1 *512:X *81:10 42.9921 
2 *81:10 *513:B1 42.4536 
*END

*D_NET *82 0.00156954
*CONN
*I *515:B1 I *D sky130_fd_sc_hd__o211a_1
*I *514:X O *D sky130_fd_sc_hd__or2_1
*CAP
1 *515:B1 9.26341e-05
2 *514:X 0.000488562
3 *82:14 0.000581196
4 *515:B1 *587:CLK 1.37232e-05
5 *515:B1 *113:18 9.58714e-05
6 *82:14 *104:31 4.85126e-05
7 *82:14 *113:18 3.47781e-05
8 *82:14 *132:8 0
9 *515:A2 *515:B1 1.08003e-05
10 *33:10 *82:14 0.000140958
11 *80:40 *515:B1 1.57571e-05
12 *80:49 *515:B1 4.67488e-05
*RES
1 *514:X *82:14 45.6643 
2 *82:14 *515:B1 40.0714 
*END

*D_NET *83 0.000437028
*CONN
*I *517:B1 I *D sky130_fd_sc_hd__o211a_1
*I *516:X O *D sky130_fd_sc_hd__or2_1
*CAP
1 *517:B1 0.000208779
2 *516:X 0.000208779
3 *34:10 *517:B1 1.94693e-05
*RES
1 *516:X *517:B1 49.5007 
*END

*D_NET *84 0.000662512
*CONN
*I *519:B1 I *D sky130_fd_sc_hd__o211a_1
*I *518:X O *D sky130_fd_sc_hd__or2_1
*CAP
1 *519:B1 8.87631e-05
2 *518:X 8.87631e-05
3 *519:B1 *137:87 0.000287777
4 *80:98 *519:B1 0.000197208
*RES
1 *518:X *519:B1 49.5007 
*END

*D_NET *85 0.000470953
*CONN
*I *521:B1 I *D sky130_fd_sc_hd__o211a_1
*I *520:X O *D sky130_fd_sc_hd__or2_1
*CAP
1 *521:B1 0.000201473
2 *520:X 0.000201473
3 *521:B1 *521:A1 5.55687e-05
4 *521:B1 *114:63 1.24376e-05
*RES
1 *520:X *521:B1 49.5007 
*END

*D_NET *86 0.00106099
*CONN
*I *523:B1 I *D sky130_fd_sc_hd__o211a_1
*I *522:X O *D sky130_fd_sc_hd__or2_1
*CAP
1 *523:B1 0
2 *522:X 0.000271938
3 *86:10 0.000271938
4 *86:10 *525:C1 1.01436e-05
5 *86:10 *111:36 0.000114846
6 *86:10 *126:14 0.000224679
7 *86:10 *137:113 0.000167443
*RES
1 *522:X *86:10 43.2614 
2 *86:10 *523:B1 38 
*END

*D_NET *87 0.00078932
*CONN
*I *525:B1 I *D sky130_fd_sc_hd__o211a_1
*I *524:X O *D sky130_fd_sc_hd__or2_1
*CAP
1 *525:B1 0
2 *524:X 0.000243291
3 *87:8 0.000243291
4 *87:8 *524:A 0.00010018
5 *87:8 *525:A1 5.90675e-06
6 *87:8 *118:34 5.25848e-05
7 *87:8 *118:51 0.000144067
*RES
1 *524:X *87:8 28.4064 
2 *87:8 *525:B1 23 
*END

*D_NET *88 0.00154271
*CONN
*I *527:B1 I *D sky130_fd_sc_hd__o211a_1
*I *526:X O *D sky130_fd_sc_hd__or2_1
*CAP
1 *527:B1 0
2 *526:X 0.000447073
3 *88:10 0.000447073
4 *88:10 *503:A 0.000139357
5 *88:10 *557:B1 0.000286571
6 *88:10 *120:35 7.7086e-05
7 *80:59 *88:10 0.000145551
*RES
1 *526:X *88:10 47.5493 
2 *88:10 *527:B1 38 
*END

*D_NET *89 0.0132904
*CONN
*I *570:A I *D sky130_fd_sc_hd__and3_1
*I *554:B1 I *D sky130_fd_sc_hd__o21a_1
*I *566:B1 I *D sky130_fd_sc_hd__o31a_1
*I *550:B1 I *D sky130_fd_sc_hd__o31a_1
*I *540:B1 I *D sky130_fd_sc_hd__o21a_1
*I *574:A I *D sky130_fd_sc_hd__and3_1
*I *572:A I *D sky130_fd_sc_hd__and3_1
*I *528:X O *D sky130_fd_sc_hd__and2_2
*CAP
1 *570:A 0
2 *554:B1 0
3 *566:B1 5.21196e-05
4 *550:B1 4.79691e-05
5 *540:B1 0.000551519
6 *574:A 0.000137765
7 *572:A 1.39194e-05
8 *528:X 0.000102794
9 *89:99 0.000770674
10 *89:76 0.00133409
11 *89:48 0.000945567
12 *89:33 0.00145453
13 *89:27 0.00165821
14 *89:16 0.000606185
15 *89:6 0.000518836
16 *540:B1 *100:16 0.00020218
17 *540:B1 *109:8 2.65879e-05
18 *540:B1 *112:31 9.84794e-05
19 *550:B1 *107:27 2.8936e-05
20 *550:B1 *109:24 0
21 *572:A *136:40 2.93747e-05
22 *574:A *107:21 0
23 *574:A *133:23 5.01716e-05
24 *574:A *134:28 0
25 *89:6 *136:25 0.000271476
26 *89:16 *136:25 0.00017184
27 *89:16 *136:40 0.000275905
28 *89:27 *93:25 8.04879e-05
29 *89:27 *129:80 0
30 *89:27 *134:126 0
31 *89:33 *108:21 0.000151302
32 *89:33 *133:47 5.47927e-05
33 *89:48 *542:A_N 6.02277e-06
34 *89:48 *107:21 0
35 *89:48 *107:27 6.61209e-05
36 *89:48 *133:23 2.82307e-05
37 *89:48 *133:47 7.30978e-05
38 *89:76 *563:B1 0.000109282
39 *89:76 *91:42 0.00016278
40 *89:76 *93:25 0.000351626
41 *89:76 *107:60 0.000240875
42 *89:76 *129:80 0
43 *89:99 *107:60 5.94125e-05
44 *550:A2 *540:B1 1.76557e-05
45 *550:A3 *540:B1 5.50049e-05
46 *566:A2 *566:B1 0.000182826
47 *566:A2 *89:99 0.000149181
48 *568:A2 *89:99 0.000560644
49 *570:C *89:6 9.45097e-05
50 *570:C *89:16 5.67058e-05
51 *572:C *572:A 5.67058e-05
52 *572:C *89:16 5.10353e-05
53 *49:10 *89:16 5.50049e-05
54 *55:8 *540:B1 1.32939e-05
55 *56:14 *566:B1 9.91798e-05
56 *56:14 *89:99 4.34973e-05
57 *56:25 *89:99 0.000249617
58 *56:33 *89:99 7.11824e-06
59 *57:10 *550:B1 1.01436e-05
60 *60:14 *89:76 0.000191157
61 *60:27 *89:76 0
62 *60:27 *89:99 4.6318e-06
63 *62:8 *89:76 0
64 *76:8 *89:33 0.00065935
*RES
1 *528:X *89:6 26.0036 
2 *89:6 *89:16 9.52857 
3 *89:16 *572:A 23.6214 
4 *89:16 *89:27 17.61 
5 *89:27 *89:33 44.9143 
6 *89:33 *574:A 40.61 
7 *89:33 *89:48 7.02214 
8 *89:48 *540:B1 47.7357 
9 *89:48 *550:B1 39.2014 
10 *89:27 *89:76 27.47 
11 *89:76 *566:B1 25.0507 
12 *89:76 *89:99 45.1421 
13 *89:99 *554:B1 23 
14 *89:6 *570:A 23 
*END

*D_NET *90 0.0146677
*CONN
*I *562:B1 I *D sky130_fd_sc_hd__a31oi_1
*I *558:B1 I *D sky130_fd_sc_hd__a31oi_1
*I *545:B1 I *D sky130_fd_sc_hd__a31oi_1
*I *568:C1 I *D sky130_fd_sc_hd__a211o_1
*I *576:B1 I *D sky130_fd_sc_hd__a21oi_1
*I *529:Y O *D sky130_fd_sc_hd__nand2_2
*CAP
1 *562:B1 0.000290078
2 *558:B1 4.31367e-05
3 *545:B1 0
4 *568:C1 0
5 *576:B1 0
6 *529:Y 0.000206423
7 *90:59 0.000625068
8 *90:45 0.000963962
9 *90:30 0.00231009
10 *90:22 0.0042728
11 *90:20 0.00141937
12 *90:12 0.000446227
13 *90:10 0.000523881
14 *558:B1 *600:A 0.000182832
15 *562:B1 *557:A1 5.3304e-05
16 *562:B1 *99:37 0.000230353
17 *562:B1 *101:10 0
18 *562:B1 *113:29 8.29089e-05
19 *562:B1 *124:20 0.000182347
20 *90:10 *529:A 0
21 *90:10 *137:31 0.000146261
22 *90:10 *137:40 5.70419e-05
23 *90:12 *137:31 0.000173898
24 *90:20 *101:10 3.77024e-05
25 *90:20 *106:25 0
26 *90:20 *112:41 0
27 *90:20 *113:18 0
28 *90:20 *137:31 5.50106e-05
29 *90:22 *594:CLK 3.7122e-06
30 *90:22 *106:25 0.000100137
31 *90:30 *594:CLK 0.000172997
32 *90:30 *595:CLK 0.000132758
33 *90:30 *103:73 0.000302489
34 *90:30 *107:10 1.7009e-05
35 *90:45 *511:A 0
36 *90:45 *560:B 0
37 *90:45 *560:D 6.00113e-05
38 *90:45 *570:B 6.47732e-05
39 *90:45 *91:23 0.000215832
40 *90:45 *103:16 0
41 *90:45 *107:118 0
42 *90:45 *129:14 0
43 *90:45 *129:18 0
44 *90:45 *134:139 6.00136e-06
45 *90:45 *137:8 0
46 *90:59 *101:10 0
47 *90:59 *113:29 0.000186309
48 *544:A *562:B1 0
49 *562:A1 *562:B1 5.3304e-05
50 *594:D *90:22 2.61544e-05
51 *595:D *90:30 7.10068e-06
52 *596:D *90:30 9.99038e-06
53 *41:8 *90:20 0.000169665
54 *48:8 *90:45 0.000113153
55 *60:88 *90:45 0
56 *62:12 *558:B1 0.000182832
57 *71:14 *90:45 1.05441e-05
58 *78:40 *90:45 0.00014669
59 *79:8 *90:10 5.3304e-05
60 *79:8 *90:12 0.000185428
61 *79:8 *90:20 5.50106e-05
62 *79:18 *90:20 0
63 *79:18 *90:59 3.47781e-05
64 *80:23 *90:10 5.50106e-05
*RES
1 *529:Y *90:10 27.5986 
2 *90:10 *90:12 2.05071 
3 *90:12 *90:20 37.4571 
4 *90:20 *90:22 13.9614 
5 *90:22 *90:30 34.9864 
6 *90:30 *576:B1 23 
7 *90:22 *90:45 48.8707 
8 *90:45 *568:C1 23 
9 *90:12 *545:B1 23 
10 *90:10 *90:59 20.7793 
11 *90:59 *558:B1 40.0507 
12 *90:59 *562:B1 44.4007 
*END

*D_NET *91 0.00748484
*CONN
*I *543:D I *D sky130_fd_sc_hd__or4_1
*I *560:D I *D sky130_fd_sc_hd__or4_1
*I *563:A4 I *D sky130_fd_sc_hd__o41a_1
*I *546:A4 I *D sky130_fd_sc_hd__o41a_1
*I *570:B I *D sky130_fd_sc_hd__and3_1
*I *530:Y O *D sky130_fd_sc_hd__nand2_1
*CAP
1 *543:D 0
2 *560:D 0.000231625
3 *563:A4 0
4 *546:A4 0.000271342
5 *570:B 0.00027888
6 *530:Y 8.24046e-05
7 *91:42 0.00011002
8 *91:27 0.000643764
9 *91:23 0.00080128
10 *91:10 0.000586132
11 *91:8 8.24046e-05
12 *546:A4 *546:A1 9.5877e-05
13 *546:A4 *100:16 5.67058e-05
14 *546:A4 *133:66 9.74625e-05
15 *546:A4 *133:74 0.000348934
16 *560:D *560:A 0.000137651
17 *560:D *107:70 0.00026808
18 *570:B *511:D_N 0
19 *570:B *134:139 0.000270405
20 *91:8 *530:B 0.000174309
21 *91:23 *511:D_N 0
22 *91:23 *133:78 0
23 *91:27 *133:74 0.000982592
24 *91:42 *563:B1 1.05441e-05
25 *91:42 *129:80 0
26 *543:B *91:8 0.0002263
27 *78:10 *546:A4 0.000143655
28 *78:10 *91:42 0
29 *78:40 *546:A4 0.000256544
30 *78:40 *91:27 0.000824528
31 *89:76 *91:42 0.00016278
32 *90:45 *560:D 6.00113e-05
33 *90:45 *570:B 6.47732e-05
34 *90:45 *91:23 0.000215832
*RES
1 *530:Y *91:8 26.0243 
2 *91:8 *91:10 15 
3 *91:10 *570:B 41.8321 
4 *91:10 *91:23 6.13143 
5 *91:23 *91:27 26.1029 
6 *91:27 *546:A4 31.7414 
7 *91:27 *91:42 32.2579 
8 *91:42 *563:A4 23 
9 *91:23 *560:D 43.3857 
10 *91:8 *543:D 23 
*END

*D_NET *92 0.00345407
*CONN
*I *557:A1 I *D sky130_fd_sc_hd__a21o_1
*I *553:B2 I *D sky130_fd_sc_hd__a32o_1
*I *531:X O *D sky130_fd_sc_hd__and3_1
*CAP
1 *557:A1 0.00044571
2 *553:B2 3.9148e-05
3 *531:X 0.000264038
4 *92:12 0.000484858
5 *92:10 0.000264038
6 *553:B2 *551:A1 1.76557e-05
7 *557:A1 *551:B1 0.00032418
8 *557:A1 *99:29 0.000258245
9 *557:A1 *99:37 9.41704e-05
10 *557:A1 *119:44 0.00010018
11 *557:A1 *128:10 6.4631e-05
12 *92:10 *607:A 0
13 *92:10 *112:62 9.68263e-05
14 *92:10 *129:125 0.00012918
15 *92:10 *135:46 0.000135304
16 *551:A2 *553:B2 3.22879e-05
17 *557:A2 *557:A1 5.67058e-05
18 *562:A1 *557:A1 0.000108826
19 *562:B1 *557:A1 5.3304e-05
20 *60:70 *557:A1 8.71888e-05
21 *78:67 *553:B2 0.000141954
22 *78:67 *557:A1 0.000255642
*RES
1 *531:X *92:10 42.7643 
2 *92:10 *92:12 15 
3 *92:12 *553:B2 24.5743 
4 *92:12 *557:A1 36.05 
*END

*D_NET *93 0.00265339
*CONN
*I *572:B I *D sky130_fd_sc_hd__and3_1
*I *555:B I *D sky130_fd_sc_hd__or3b_1
*I *573:B I *D sky130_fd_sc_hd__nand2_1
*I *532:Y O *D sky130_fd_sc_hd__nand3_1
*CAP
1 *572:B 0
2 *555:B 0
3 *573:B 0
4 *532:Y 0
5 *93:25 0.000259942
6 *93:19 0.000571442
7 *93:12 0.000211169
8 *93:4 0.000522668
9 *93:12 *532:A 4.77164e-06
10 *93:12 *129:43 3.5471e-05
11 *93:12 *129:80 0
12 *93:12 *134:10 5.67058e-05
13 *93:12 *134:16 9.69849e-05
14 *93:19 *134:6 0.000226306
15 *93:19 *134:10 0.000213069
16 *93:25 *563:A1 0
17 *93:25 *103:16 0
18 *573:A *93:12 2.27474e-05
19 *62:8 *93:25 0
20 *89:27 *93:25 8.04879e-05
21 *89:76 *93:25 0.000351626
*RES
1 *532:Y *93:4 23 
2 *93:4 *93:12 33.2521 
3 *93:12 *573:B 23 
4 *93:4 *93:19 4.90929 
5 *93:19 *93:25 35.7793 
6 *93:25 *555:B 23 
7 *93:19 *572:B 23 
*END

*D_NET *94 0.011632
*CONN
*I *541:A1 I *D sky130_fd_sc_hd__a21o_1
*I *544:B I *D sky130_fd_sc_hd__nand3_1
*I *551:A1 I *D sky130_fd_sc_hd__a21oi_1
*I *553:A2 I *D sky130_fd_sc_hd__a32o_1
*I *539:B1 I *D sky130_fd_sc_hd__o2111a_1
*I *548:A I *D sky130_fd_sc_hd__and2_1
*I *533:X O *D sky130_fd_sc_hd__and2b_1
*CAP
1 *541:A1 0.00017828
2 *544:B 0.000189927
3 *551:A1 0.000236206
4 *553:A2 0
5 *539:B1 9.56441e-05
6 *548:A 0
7 *533:X 0.000263928
8 *94:70 0.000721628
9 *94:46 0.000342631
10 *94:42 0.00175302
11 *94:27 0.00172622
12 *94:18 0.000333311
13 *94:10 0.00067072
14 *94:8 0.000263928
15 *539:B1 *134:93 5.80693e-05
16 *539:B1 *134:108 6.01895e-05
17 *541:A1 *101:10 9.84851e-05
18 *541:A1 *122:14 0.000143655
19 *541:A1 *124:20 1.94693e-05
20 *544:B *112:62 0.000123659
21 *551:A1 *120:16 2.44322e-05
22 *94:8 *547:B 1.58805e-05
23 *94:8 *114:37 3.46241e-05
24 *94:8 *114:45 1.02387e-05
25 *94:8 *129:95 2.54046e-05
26 *94:8 *133:66 0.000140958
27 *94:8 *136:69 6.4393e-05
28 *94:8 *136:80 7.56417e-05
29 *94:8 *136:91 5.31444e-05
30 *94:18 *498:A 9.67842e-05
31 *94:18 *542:A_N 9.67842e-05
32 *94:18 *565:A2 3.88504e-05
33 *94:18 *107:54 0.000137788
34 *94:27 *498:A 0.000401795
35 *94:42 *115:30 0.000756533
36 *94:42 *120:35 0.000116745
37 *94:46 *607:A 2.6538e-05
38 *94:46 *120:16 1.65202e-05
39 *94:70 *112:62 4.82229e-05
40 *94:70 *115:30 0.000192411
41 *94:70 *120:35 0.000566931
42 *544:A *544:B 0.000396264
43 *544:A *94:70 7.43244e-05
44 *549:C *94:18 5.76005e-05
45 *551:A2 *551:A1 0.000223692
46 *553:B2 *551:A1 1.76557e-05
47 *565:A1 *539:B1 3.6407e-05
48 *565:A1 *94:42 2.88541e-05
49 *565:C1 *539:B1 1.22803e-05
50 *565:C1 *94:42 2.98663e-05
51 *60:103 *551:A1 1.45549e-05
52 *66:10 *541:A1 4.39607e-05
53 *67:10 *541:A1 9.24795e-06
54 *78:10 *539:B1 2.11647e-05
55 *78:59 *551:A1 2.26406e-05
56 *78:59 *94:42 0.000313604
57 *78:59 *94:46 1.05441e-05
58 *78:67 *94:70 9.9756e-05
*RES
1 *533:X *94:8 43.7793 
2 *94:8 *94:10 15 
3 *94:10 *94:18 35.3857 
4 *94:18 *548:A 23 
5 *94:10 *94:27 19.9093 
6 *94:27 *539:B1 39.9057 
7 *94:27 *94:42 13.0312 
8 *94:42 *94:46 9.3775 
9 *94:46 *553:A2 38 
10 *94:46 *551:A1 41.8529 
11 *94:42 *94:70 11.5203 
12 *94:70 *544:B 43.4271 
13 *94:70 *541:A1 41.9564 
*END

*D_NET *95 0.0022971
*CONN
*I *574:B I *D sky130_fd_sc_hd__and3_1
*I *535:B I *D sky130_fd_sc_hd__or2_1
*I *575:B I *D sky130_fd_sc_hd__nand2_1
*I *536:A2 I *D sky130_fd_sc_hd__o21a_1
*I *534:Y O *D sky130_fd_sc_hd__nand4_1
*CAP
1 *574:B 0
2 *535:B 0
3 *575:B 0
4 *536:A2 0
5 *534:Y 0.000245116
6 *95:31 0.00011569
7 *95:20 0.000191315
8 *95:12 0.000389464
9 *95:10 0.000274548
10 *95:6 0.000437205
11 *95:6 *534:D 1.57571e-05
12 *95:6 *134:28 6.17437e-06
13 *95:10 *133:23 4.38844e-05
14 *95:12 *133:23 0.00010018
15 *95:12 *133:31 0.000129522
16 *95:20 *108:8 2.29271e-05
17 *95:20 *112:41 3.23515e-05
18 *95:20 *133:31 9.67842e-05
19 *95:31 *96:8 8.62876e-05
20 *95:31 *133:31 7.81176e-05
21 *74:10 *95:6 2.93181e-05
22 *74:10 *95:10 2.46183e-06
*RES
1 *534:Y *95:6 26.48 
2 *95:6 *95:10 3.25214 
3 *95:10 *95:12 2.52714 
4 *95:12 *95:20 33.8321 
5 *95:20 *536:A2 23 
6 *95:12 *95:31 32.61 
7 *95:31 *575:B 23 
8 *95:10 *535:B 23 
9 *95:6 *574:B 23 
*END

*D_NET *96 0.000699905
*CONN
*I *576:A1 I *D sky130_fd_sc_hd__a21oi_1
*I *535:X O *D sky130_fd_sc_hd__or2_1
*CAP
1 *576:A1 0.000168144
2 *535:X 5.94633e-05
3 *96:8 0.000227607
4 *576:A1 *103:73 6.08251e-05
5 *576:A2 *576:A1 9.75779e-05
6 *50:8 *96:8 0
7 *95:31 *96:8 8.62876e-05
*RES
1 *535:X *96:8 39.2014 
2 *96:8 *576:A1 40.5271 
*END

*D_NET *97 0.000951478
*CONN
*I *540:A1 I *D sky130_fd_sc_hd__o21a_1
*I *536:X O *D sky130_fd_sc_hd__o21a_1
*CAP
1 *540:A1 0
2 *536:X 0.00032569
3 *97:10 0.00032569
4 *97:10 *103:63 0
5 *97:10 *109:24 0
6 *97:10 *112:31 0.000300098
*RES
1 *536:X *97:10 43.8207 
2 *97:10 *540:A1 38 
*END

*D_NET *98 0.00336125
*CONN
*I *565:A2 I *D sky130_fd_sc_hd__o211a_1
*I *549:B_N I *D sky130_fd_sc_hd__and4bb_1
*I *537:X O *D sky130_fd_sc_hd__and2b_1
*CAP
1 *565:A2 0.000303664
2 *549:B_N 0.000270839
3 *537:X 0.000149373
4 *98:10 0.000723876
5 *549:B_N *549:D 5.50049e-05
6 *549:B_N *115:18 0.000440169
7 *565:A2 *542:A_N 3.3746e-05
8 *565:A2 *547:A 0.000287389
9 *565:A2 *107:54 0.000105425
10 *98:10 *537:B 5.67058e-05
11 *98:10 *542:A_N 9.04083e-05
12 *98:10 *547:A 2.68751e-05
13 *98:10 *134:54 0.000161121
14 *565:C1 *565:A2 8.72482e-05
15 *55:8 *98:10 5.12254e-05
16 *56:14 *565:A2 0.000479335
17 *94:18 *565:A2 3.88504e-05
*RES
1 *537:X *98:10 41.7079 
2 *98:10 *549:B_N 43.5307 
3 *98:10 *565:A2 47.1971 
*END

*D_NET *99 0.00594427
*CONN
*I *556:A I *D sky130_fd_sc_hd__nand2_1
*I *559:A1 I *D sky130_fd_sc_hd__a21o_1
*I *561:B I *D sky130_fd_sc_hd__nand3_1
*I *541:A2 I *D sky130_fd_sc_hd__a21o_1
*I *544:C I *D sky130_fd_sc_hd__nand3_1
*I *538:X O *D sky130_fd_sc_hd__and3b_1
*CAP
1 *556:A 0
2 *559:A1 0
3 *561:B 0
4 *541:A2 0
5 *544:C 2.00578e-05
6 *538:X 6.84082e-05
7 *99:48 0.000220923
8 *99:37 0.000239798
9 *99:29 0.000642448
10 *99:27 0.000695037
11 *99:21 0.000746777
12 *99:8 0.000321933
13 *99:8 *114:45 1.14154e-05
14 *99:8 *114:55 4.96717e-05
15 *99:8 *129:6 4.96717e-05
16 *99:8 *129:8 6.17437e-06
17 *99:21 *111:14 0.000573195
18 *99:21 *114:55 0.000270763
19 *99:21 *129:6 0.000102366
20 *99:27 *104:10 0
21 *99:27 *113:29 0
22 *99:27 *119:44 1.01436e-05
23 *99:27 *126:20 3.13866e-05
24 *99:37 *113:29 0.000279621
25 *99:37 *124:20 1.88972e-05
26 *99:48 *113:29 0.00030518
27 *99:48 *126:20 0
28 *556:B *99:21 0.000185428
29 *556:B *99:27 0
30 *557:A1 *99:29 0.000258245
31 *557:A1 *99:37 9.41704e-05
32 *562:B1 *99:37 0.000230353
33 *45:8 *99:37 1.14452e-05
34 *60:51 *99:48 4.77164e-06
35 *60:70 *99:48 5.4264e-05
36 *63:10 *99:27 7.90568e-05
37 *64:10 *99:27 0.000342115
38 *78:92 *99:48 2.05503e-05
*RES
1 *538:X *99:8 24.595 
2 *99:8 *544:C 23.4971 
3 *99:8 *99:21 9.83929 
4 *99:21 *99:27 39.6529 
5 *99:27 *99:29 3.00357 
6 *99:29 *99:37 35.1164 
7 *99:37 *541:A2 23 
8 *99:29 *99:48 34.3707 
9 *99:48 *561:B 23 
10 *99:27 *559:A1 23 
11 *99:21 *556:A 23 
*END

*D_NET *100 0.00305113
*CONN
*I *540:A2 I *D sky130_fd_sc_hd__o21a_1
*I *539:X O *D sky130_fd_sc_hd__o2111a_1
*CAP
1 *540:A2 0
2 *539:X 5.40086e-05
3 *100:16 0.000847259
4 *100:8 0.000901267
5 *100:8 *114:37 4.62332e-05
6 *100:16 *109:8 0.000227407
7 *100:16 *133:66 4.39725e-05
8 *100:16 *134:43 5.61255e-06
9 *540:B1 *100:16 0.00020218
10 *546:A4 *100:16 5.67058e-05
11 *565:A1 *100:8 2.5415e-05
12 *55:8 *100:16 0.000641072
*RES
1 *539:X *100:8 39.2014 
2 *100:8 *100:16 30.9086 
3 *100:16 *540:A2 23 
*END

*D_NET *101 0.00153464
*CONN
*I *545:A1 I *D sky130_fd_sc_hd__a31oi_1
*I *541:X O *D sky130_fd_sc_hd__a21o_1
*CAP
1 *545:A1 0
2 *541:X 0.000491945
3 *101:10 0.000491945
4 *101:10 *112:62 0
5 *541:A1 *101:10 9.84851e-05
6 *544:A *101:10 0.000372179
7 *562:B1 *101:10 0
8 *54:8 *101:10 4.23817e-05
9 *90:20 *101:10 3.77024e-05
10 *90:59 *101:10 0
*RES
1 *541:X *101:10 46.99 
2 *101:10 *545:A1 38 
*END

*D_NET *102 0.00324674
*CONN
*I *600:A I *D sky130_fd_sc_hd__clkbuf_16
*I *599:A I *D sky130_fd_sc_hd__clkbuf_16
*I *598:X O *D sky130_fd_sc_hd__clkbuf_16
*CAP
1 *600:A 0.000320645
2 *599:A 0.000689743
3 *598:X 2.34823e-05
4 *102:6 0.00103387
5 *599:A *133:74 5.50049e-05
6 *558:B1 *600:A 0.000182832
7 *44:10 *600:A 0.000267173
8 *62:12 *599:A 0.00053901
9 *62:12 *600:A 0.00013498
*RES
1 *598:X *102:6 23.4971 
2 *102:6 *599:A 35.0557 
3 *102:6 *600:A 30.2914 
*END

*D_NET *103 0.0129602
*CONN
*I *593:CLK I *D sky130_fd_sc_hd__dfxtp_1
*I *592:CLK I *D sky130_fd_sc_hd__dfxtp_1
*I *589:CLK I *D sky130_fd_sc_hd__dfxtp_1
*I *588:CLK I *D sky130_fd_sc_hd__dfxtp_1
*I *586:CLK I *D sky130_fd_sc_hd__dfxtp_1
*I *597:CLK I *D sky130_fd_sc_hd__dfxtp_1
*I *596:CLK I *D sky130_fd_sc_hd__dfxtp_2
*I *601:A I *D sky130_fd_sc_hd__clkinvlp_4
*I *594:CLK I *D sky130_fd_sc_hd__dfxtp_1
*I *595:CLK I *D sky130_fd_sc_hd__dfxtp_1
*I *599:X O *D sky130_fd_sc_hd__clkbuf_16
*CAP
1 *593:CLK 2.71846e-05
2 *592:CLK 0
3 *589:CLK 0
4 *588:CLK 0
5 *586:CLK 0
6 *597:CLK 0
7 *596:CLK 0
8 *601:A 0.000117292
9 *594:CLK 0.000101107
10 *595:CLK 0.000195149
11 *599:X 0
12 *103:73 0.000574021
13 *103:63 0.00102126
14 *103:61 0.000771426
15 *103:59 0.000723067
16 *103:53 0.000848047
17 *103:51 0.0008408
18 *103:49 0.000972921
19 *103:16 0.000803819
20 *103:8 0.000691711
21 *103:6 0.000620962
22 *594:CLK *106:12 0.00012377
23 *594:CLK *106:25 9.6103e-05
24 *595:CLK *106:12 7.99597e-05
25 *601:A *114:45 0.000123924
26 *103:8 *563:A1 0.000156388
27 *103:8 *107:118 8.16459e-05
28 *103:16 *563:A1 0.000177805
29 *103:16 *106:12 5.50049e-05
30 *103:16 *107:118 9.44942e-05
31 *103:16 *129:18 0
32 *103:16 *129:31 4.36401e-06
33 *103:49 *563:A1 0.00024687
34 *103:49 *107:118 0.000109786
35 *103:51 *118:8 7.88926e-05
36 *103:59 *624:A 0
37 *103:59 *115:8 0.00019975
38 *103:59 *115:18 0
39 *103:61 *115:18 0
40 *103:63 *112:31 0
41 *103:63 *112:41 0
42 *576:A1 *103:73 6.08251e-05
43 *576:A2 *103:73 9.61805e-05
44 *589:D *103:53 0.00113034
45 *589:D *103:59 0.000129006
46 *592:D *103:51 0.000102732
47 *595:D *595:CLK 1.64354e-05
48 *43:22 *593:CLK 2.32101e-05
49 *43:22 *103:51 0.000753018
50 *43:22 *103:53 9.90162e-05
51 *49:10 *103:16 0
52 *51:8 *103:73 0
53 *60:27 *103:49 0
54 *78:40 *103:49 0
55 *90:22 *594:CLK 3.7122e-06
56 *90:30 *594:CLK 0.000172997
57 *90:30 *595:CLK 0.000132758
58 *90:30 *103:73 0.000302489
59 *90:45 *103:16 0
60 *93:25 *103:16 0
61 *97:10 *103:63 0
*RES
1 *599:X *103:6 38 
2 *103:6 *103:8 2.25786 
3 *103:8 *103:16 24.0107 
4 *103:16 *595:CLK 28.5721 
5 *103:16 *594:CLK 27.9093 
6 *103:8 *601:A 40.5271 
7 *103:6 *103:49 24.3007 
8 *103:49 *103:51 12.0557 
9 *103:51 *103:53 14.4379 
10 *103:53 *103:59 23.9486 
11 *103:59 *103:61 5.77929 
12 *103:61 *103:63 8.59643 
13 *103:63 *103:73 28.2779 
14 *103:73 *596:CLK 23 
15 *103:63 *597:CLK 38 
16 *103:61 *586:CLK 38 
17 *103:59 *588:CLK 38 
18 *103:53 *589:CLK 23 
19 *103:51 *592:CLK 23 
20 *103:49 *593:CLK 23.6214 
*END

*D_NET *104 0.0134676
*CONN
*I *590:CLK I *D sky130_fd_sc_hd__dfxtp_1
*I *585:CLK I *D sky130_fd_sc_hd__dfxtp_1
*I *591:CLK I *D sky130_fd_sc_hd__dfxtp_1
*I *508:A I *D sky130_fd_sc_hd__inv_2
*I *584:CLK I *D sky130_fd_sc_hd__dfxtp_1
*I *583:CLK I *D sky130_fd_sc_hd__dfxtp_1
*I *582:CLK I *D sky130_fd_sc_hd__dfxtp_1
*I *580:CLK I *D sky130_fd_sc_hd__dfxtp_1
*I *581:CLK I *D sky130_fd_sc_hd__dfxtp_1
*I *578:CLK I *D sky130_fd_sc_hd__dfxtp_1
*I *579:CLK I *D sky130_fd_sc_hd__dfxtp_1
*I *587:CLK I *D sky130_fd_sc_hd__dfxtp_1
*I *600:X O *D sky130_fd_sc_hd__clkbuf_16
*CAP
1 *590:CLK 2.10401e-05
2 *585:CLK 0.000215244
3 *591:CLK 0.000372076
4 *508:A 0
5 *584:CLK 0.000116266
6 *583:CLK 6.793e-05
7 *582:CLK 0
8 *580:CLK 2.34823e-05
9 *581:CLK 0
10 *578:CLK 2.1727e-05
11 *579:CLK 6.71327e-05
12 *587:CLK 0.000155486
13 *600:X 0
14 *104:125 0.000743894
15 *104:114 0.000520966
16 *104:110 0.000526128
17 *104:88 0.00052772
18 *104:79 0.000727227
19 *104:66 0.00111123
20 *104:59 0.000110647
21 *104:51 0.000894511
22 *104:42 0.000803458
23 *104:31 0.000896832
24 *104:10 0.00104438
25 *104:4 0.000901805
26 *583:CLK *128:25 1.22822e-05
27 *584:CLK *524:B 0
28 *584:CLK *117:35 0.000184816
29 *584:CLK *126:14 8.68016e-06
30 *585:CLK *117:22 0.000130118
31 *585:CLK *123:10 2.93845e-05
32 *585:CLK *140:12 0.000158353
33 *587:CLK *113:18 0.00010018
34 *590:CLK *114:63 5.50106e-05
35 *591:CLK *123:10 7.88828e-05
36 *591:CLK *140:12 0.00048708
37 *104:10 *113:18 2.47015e-05
38 *104:10 *114:55 0
39 *104:10 *137:46 6.07394e-05
40 *104:31 *113:18 4.77554e-05
41 *104:59 *112:51 0
42 *104:59 *132:29 0
43 *104:79 *516:B 0
44 *104:79 *114:69 0.000103009
45 *104:79 *130:21 0
46 *104:88 *524:B 0
47 *104:88 *126:14 1.37349e-05
48 *104:88 *130:21 0
49 *104:88 *130:32 0
50 *104:88 *146:10 0
51 *104:110 *114:63 0.000183733
52 *104:114 *503:A 0
53 *104:114 *504:A 0
54 *104:114 *115:46 0
55 *104:114 *120:35 1.23662e-05
56 *104:114 *138:8 0.000137788
57 *104:125 *504:A 0
58 *104:125 *117:22 0
59 *104:125 *120:35 5.82922e-05
60 *515:B1 *587:CLK 1.37232e-05
61 *578:D *104:51 8.90341e-05
62 *579:D *104:42 1.64354e-05
63 *583:D *583:CLK 3.22879e-05
64 *591:D *591:CLK 0.000126403
65 *32:10 *104:59 4.08537e-05
66 *34:10 *104:79 5.56306e-05
67 *35:8 *104:59 4.21594e-06
68 *36:8 *104:79 4.21594e-06
69 *36:8 *104:88 5.86165e-05
70 *44:10 *104:10 8.86166e-05
71 *44:10 *104:110 2.32004e-05
72 *79:18 *104:10 0
73 *80:40 *587:CLK 8.55223e-05
74 *80:115 *104:79 0.000222113
75 *80:115 *104:88 0.000240695
76 *80:130 *104:88 0.000376261
77 *80:149 *583:CLK 2.93845e-05
78 *80:149 *584:CLK 0.000100201
79 *81:10 *104:59 5.56203e-05
80 *82:14 *104:31 4.85126e-05
81 *99:27 *104:10 0
*RES
1 *600:X *104:4 23 
2 *104:4 *104:10 27.0246 
3 *104:10 *587:CLK 41.0139 
4 *104:10 *104:31 17.7032 
5 *104:31 *579:CLK 24.4707 
6 *104:31 *104:42 11.5793 
7 *104:42 *578:CLK 23.4971 
8 *104:42 *104:51 1.57429 
9 *104:51 *104:59 32.4029 
10 *104:59 *581:CLK 23 
11 *104:51 *104:66 11.5793 
12 *104:66 *580:CLK 23.4971 
13 *104:66 *104:79 23.5136 
14 *104:79 *582:CLK 38 
15 *104:79 *104:88 8.59643 
16 *104:88 *583:CLK 39.5743 
17 *104:88 *584:CLK 40.9621 
18 *104:4 *104:110 3.37643 
19 *104:110 *104:114 21.1314 
20 *104:114 *508:A 38 
21 *104:114 *104:125 17.9621 
22 *104:125 *591:CLK 33.7921 
23 *104:125 *585:CLK 28.3857 
24 *104:110 *590:CLK 23.6214 
*END

*D_NET *105 0.00341892
*CONN
*I *538:A_N I *D sky130_fd_sc_hd__and3b_1
*I *530:B I *D sky130_fd_sc_hd__nand2_1
*I *510:C I *D sky130_fd_sc_hd__nor4b_1
*I *606:A I *D sky130_fd_sc_hd__buf_2
*I *594:Q O *D sky130_fd_sc_hd__dfxtp_1
*CAP
1 *538:A_N 0.000126718
2 *530:B 0.000438385
3 *510:C 4.12026e-05
4 *606:A 0
5 *594:Q 0.000266636
6 *105:19 0.000564432
7 *105:17 0.000218275
8 *105:8 0.000273349
9 *510:C *135:16 6.51485e-05
10 *510:C *135:20 1.02561e-05
11 *510:C *137:8 9.20311e-06
12 *530:B *510:A 9.67842e-05
13 *530:B *543:A 5.50049e-05
14 *530:B *135:16 9.67842e-05
15 *530:B *135:20 5.62433e-06
16 *538:A_N *607:A 4.21594e-06
17 *538:A_N *114:45 2.64616e-05
18 *538:A_N *129:14 5.3304e-05
19 *538:A_N *135:20 0
20 *105:8 *135:16 0.000135168
21 *105:8 *137:8 0
22 *11:9 *538:A_N 0.000177259
23 *11:9 *105:8 0.000472855
24 *11:9 *105:17 2.46922e-05
25 *53:8 *510:C 5.67058e-05
26 *53:8 *530:B 2.61526e-05
27 *91:8 *530:B 0.000174309
*RES
1 *594:Q *105:8 44.4836 
2 *105:8 *606:A 38 
3 *105:8 *105:17 0.321071 
4 *105:17 *105:19 1.09786 
5 *105:19 *510:C 39.2946 
6 *105:19 *530:B 46.2546 
7 *105:17 *538:A_N 41.0554 
*END

*D_NET *106 0.00336286
*CONN
*I *605:A I *D sky130_fd_sc_hd__buf_1
*I *604:A I *D sky130_fd_sc_hd__buf_2
*I *595:Q O *D sky130_fd_sc_hd__dfxtp_1
*CAP
1 *605:A 0
2 *604:A 0
3 *595:Q 0
4 *106:25 0.00100577
5 *106:12 0.000391233
6 *106:4 0.00139701
7 *106:25 *137:31 4.6318e-06
8 *594:CLK *106:12 0.00012377
9 *594:CLK *106:25 9.6103e-05
10 *594:D *106:25 8.38361e-05
11 *595:CLK *106:12 7.99597e-05
12 *11:9 *106:25 0
13 *49:10 *106:12 2.54046e-05
14 *90:20 *106:25 0
15 *90:22 *106:25 0.000100137
16 *103:16 *106:12 5.50049e-05
*RES
1 *595:Q *106:4 23 
2 *106:4 *106:12 36.3386 
3 *106:12 *604:A 23 
4 *106:4 *106:25 44.4379 
5 *106:25 *605:A 23 
*END

*D_NET *107 0.0140591
*CONN
*I *533:B I *D sky130_fd_sc_hd__and2b_1
*I *563:A2 I *D sky130_fd_sc_hd__o41a_1
*I *497:A I *D sky130_fd_sc_hd__inv_2
*I *560:B I *D sky130_fd_sc_hd__or4_1
*I *552:B I *D sky130_fd_sc_hd__nor2_2
*I *510:A I *D sky130_fd_sc_hd__nor4b_1
*I *511:A I *D sky130_fd_sc_hd__or4b_4
*I *549:D I *D sky130_fd_sc_hd__and4bb_1
*I *534:B I *D sky130_fd_sc_hd__nand4_1
*I *596:Q O *D sky130_fd_sc_hd__dfxtp_2
*CAP
1 *533:B 2.05553e-05
2 *563:A2 0
3 *497:A 0
4 *560:B 0.000135937
5 *552:B 0
6 *510:A 3.41136e-05
7 *511:A 0.000219835
8 *549:D 4.25104e-05
9 *534:B 0
10 *596:Q 0.00018822
11 *107:118 0.000406026
12 *107:74 0.000466872
13 *107:72 0.00027867
14 *107:70 0.00077517
15 *107:64 0.00132314
16 *107:60 0.000493506
17 *107:54 0.00128529
18 *107:27 0.0014435
19 *107:21 0.000596759
20 *107:10 0.000498833
21 *511:A *511:D_N 0.000136733
22 *511:A *528:A 9.84794e-05
23 *511:A *108:39 2.26497e-05
24 *511:A *133:78 4.6318e-06
25 *511:A *136:12 9.84794e-05
26 *511:A *136:25 8.70252e-05
27 *511:A *137:8 7.97983e-05
28 *511:A *137:31 0.000227208
29 *533:B *109:24 5.3304e-05
30 *533:B *133:66 4.08664e-05
31 *560:B *560:A 3.33966e-05
32 *107:10 *134:28 1.14452e-05
33 *107:10 *136:58 1.14452e-05
34 *107:21 *542:A_N 9.48381e-06
35 *107:21 *133:47 7.06124e-05
36 *107:21 *134:28 7.48331e-05
37 *107:21 *136:58 6.16439e-05
38 *107:21 *136:69 0.000464402
39 *107:27 *542:A_N 5.97612e-05
40 *107:27 *109:24 0.000224605
41 *107:27 *133:51 5.50106e-05
42 *107:27 *133:66 9.84794e-05
43 *107:54 *542:A_N 4.74809e-05
44 *107:54 *547:A 7.85467e-05
45 *107:60 *563:B1 1.34354e-05
46 *107:64 *563:A1 0.000313249
47 *107:72 *560:A 5.97612e-05
48 *107:74 *560:A 4.6318e-06
49 *107:74 *133:78 0.000201076
50 *107:74 *135:20 7.28438e-05
51 *107:74 *137:8 6.68793e-05
52 *107:118 *129:14 5.44006e-05
53 *107:118 *129:18 4.21594e-06
54 *530:B *510:A 9.67842e-05
55 *549:B_N *549:D 5.50049e-05
56 *550:B1 *107:27 2.8936e-05
57 *560:D *107:70 0.00026808
58 *565:A2 *107:54 0.000105425
59 *565:C1 *107:54 0.000312219
60 *566:A2 *107:54 0.000319156
61 *566:A3 *107:54 7.24555e-05
62 *574:A *107:21 0
63 *42:8 *107:54 0
64 *50:8 *107:10 0
65 *53:8 *510:A 5.12254e-05
66 *56:8 *107:54 0.00014196
67 *56:14 *107:54 4.39607e-05
68 *57:10 *107:27 0
69 *57:10 *107:54 0
70 *58:8 *107:27 0.000188916
71 *58:8 *107:54 1.01436e-05
72 *60:27 *107:60 7.20652e-05
73 *60:88 *560:B 0.000135472
74 *60:88 *107:72 0.000138718
75 *60:88 *107:74 6.16531e-05
76 *78:40 *107:118 0
77 *89:48 *107:21 0
78 *89:48 *107:27 6.61209e-05
79 *89:76 *107:60 0.000240875
80 *89:99 *107:60 5.94125e-05
81 *90:30 *107:10 1.7009e-05
82 *90:45 *511:A 0
83 *90:45 *560:B 0
84 *90:45 *107:118 0
85 *94:18 *107:54 0.000137788
86 *103:8 *107:118 8.16459e-05
87 *103:16 *107:118 9.44942e-05
88 *103:49 *107:118 0.000109786
*RES
1 *596:Q *107:10 40.7757 
2 *107:10 *534:B 38 
3 *107:10 *107:21 22.1879 
4 *107:21 *107:27 21.8979 
5 *107:27 *549:D 38.6214 
6 *107:27 *107:54 36.2114 
7 *107:54 *107:60 34.0186 
8 *107:60 *107:64 6.35929 
9 *107:64 *107:70 22.7886 
10 *107:70 *107:72 1.90571 
11 *107:72 *107:74 5.77929 
12 *107:74 *511:A 44.4421 
13 *107:74 *510:A 39.0979 
14 *107:72 *552:B 38 
15 *107:70 *560:B 40.5271 
16 *107:64 *107:118 37.8921 
17 *107:118 *497:A 23 
18 *107:60 *563:A2 23 
19 *107:21 *533:B 23.6214 
*END

*D_NET *108 0.00760898
*CONN
*I *563:A1 I *D sky130_fd_sc_hd__o41a_1
*I *510:D_N I *D sky130_fd_sc_hd__nor4b_1
*I *603:A I *D sky130_fd_sc_hd__clkbuf_2
*I *597:Q O *D sky130_fd_sc_hd__dfxtp_1
*CAP
1 *563:A1 0.000515061
2 *510:D_N 0
3 *603:A 0
4 *597:Q 0.000142039
5 *108:39 0.000593577
6 *108:21 0.00231017
7 *108:12 0.00123424
8 *108:8 0.000174749
9 *108:8 *112:31 0
10 *108:8 *112:41 0
11 *108:8 *133:23 0
12 *108:12 *133:13 5.50106e-05
13 *108:21 *133:13 0.00030262
14 *108:21 *133:47 0.00026808
15 *108:39 *112:41 0.000473619
16 *108:39 *137:8 2.26497e-05
17 *511:A *108:39 2.26497e-05
18 *60:27 *563:A1 0
19 *62:8 *563:A1 0
20 *76:8 *108:21 0.000425979
21 *89:33 *108:21 0.000151302
22 *93:25 *563:A1 0
23 *95:20 *108:8 2.29271e-05
24 *103:8 *563:A1 0.000156388
25 *103:16 *563:A1 0.000177805
26 *103:49 *563:A1 0.00024687
27 *107:64 *563:A1 0.000313249
*RES
1 *597:Q *108:8 40.61 
2 *108:8 *108:12 15.6214 
3 *108:12 *603:A 23 
4 *108:12 *108:21 39.4429 
5 *108:21 *108:39 33.2475 
6 *108:39 *510:D_N 23 
7 *108:21 *563:A1 49.5482 
*END

*D_NET *109 0.0105863
*CONN
*I *549:A_N I *D sky130_fd_sc_hd__and4bb_1
*I *507:A I *D sky130_fd_sc_hd__inv_2
*I *555:A I *D sky130_fd_sc_hd__or3b_1
*I *616:X O *D sky130_fd_sc_hd__buf_1
*CAP
1 *549:A_N 0.000181719
2 *507:A 0.000112691
3 *555:A 0.000250374
4 *616:X 0
5 *109:24 0.00161458
6 *109:8 0.00376188
7 *109:4 0.00232864
8 *507:A *129:80 8.16356e-05
9 *549:A_N *115:18 4.96717e-05
10 *555:A *114:45 0.00043586
11 *555:A *129:80 2.71291e-05
12 *109:8 *112:31 6.46399e-05
13 *109:24 *114:45 0.000485452
14 *109:24 *133:66 0.000114156
15 *533:B *109:24 5.3304e-05
16 *540:B1 *109:8 2.65879e-05
17 *550:B1 *109:24 0
18 *565:A1 *507:A 0
19 *586:D *109:8 0.000343776
20 *42:8 *549:A_N 0.000192087
21 *42:8 *109:24 1.01436e-05
22 *57:10 *109:24 0
23 *76:19 *555:A 0
24 *97:10 *109:24 0
25 *100:16 *109:8 0.000227407
26 *107:27 *109:24 0.000224605
*RES
1 *616:X *109:4 23 
2 *109:4 *109:8 47.5421 
3 *109:8 *109:24 49.1607 
4 *109:24 *555:A 43.7586 
5 *109:24 *507:A 40.2579 
6 *109:8 *549:A_N 41.7079 
*END

*D_NET *110 0.00589369
*CONN
*I *619:A I *D sky130_fd_sc_hd__buf_2
*I *526:A I *D sky130_fd_sc_hd__or2_1
*I *585:Q O *D sky130_fd_sc_hd__dfxtp_1
*CAP
1 *619:A 0
2 *526:A 0
3 *585:Q 0
4 *110:31 0.00106097
5 *110:12 0.000216992
6 *110:4 0.00127796
7 *110:12 *502:A 0.000121739
8 *110:12 *124:37 0
9 *110:12 *125:12 0
10 *110:12 *141:8 2.54046e-05
11 *110:31 *502:A 6.07084e-05
12 *110:31 *643:A 0.000704525
13 *110:31 *117:22 0.000231083
14 *110:31 *117:35 9.84794e-05
15 *110:31 *118:51 0.000143655
16 *110:31 *125:6 0.000185428
17 *110:31 *125:29 0.000140259
18 *110:31 *126:37 0.000877112
19 *110:31 *127:10 2.47702e-05
20 *110:31 *152:10 0.000576699
21 *584:D *110:31 0.000147908
*RES
1 *585:Q *110:4 23 
2 *110:4 *110:12 33.6043 
3 *110:12 *526:A 23 
4 *110:4 *110:31 31.9621 
5 *110:31 *619:A 23 
*END

*D_NET *111 0.00924081
*CONN
*I *620:A I *D sky130_fd_sc_hd__buf_2
*I *608:A I *D sky130_fd_sc_hd__dlygate4sd3_1
*I *602:A I *D sky130_fd_sc_hd__clkbuf_2
*I *577:Q O *D sky130_fd_sc_hd__dfxtp_1
*CAP
1 *620:A 0
2 *608:A 0
3 *602:A 0
4 *577:Q 0
5 *111:42 0.000488181
6 *111:36 0.00190621
7 *111:14 0.00155552
8 *111:8 0.00165657
9 *111:6 0.00151908
10 *111:8 *526:B 0.000165593
11 *111:8 *139:8 0
12 *111:14 *526:B 0.00025307
13 *111:14 *114:55 0.000259389
14 *111:36 *526:B 0.000120396
15 *111:36 *116:10 0
16 *111:36 *126:14 9.84851e-05
17 *111:36 *126:20 0.000480767
18 *111:36 *139:8 0
19 *111:42 *127:10 0
20 *111:42 *128:31 0
21 adc_out[5] *111:42 0
22 adc_out[6] *111:42 0
23 *556:B *111:14 4.95081e-05
24 *86:10 *111:36 0.000114846
25 *99:21 *111:14 0.000573195
*RES
1 *577:Q *111:6 38 
2 *111:6 *111:8 2.25786 
3 *111:8 *111:14 45.6157 
4 *111:14 *602:A 23 
5 *111:8 *608:A 38 
6 *111:6 *111:36 44.4971 
7 *111:36 *111:42 38.5964 
8 *111:42 *620:A 23 
*END

*D_NET *112 0.0206004
*CONN
*I *536:B1 I *D sky130_fd_sc_hd__o21a_1
*I *506:A I *D sky130_fd_sc_hd__inv_2
*I *513:A1 I *D sky130_fd_sc_hd__o211a_1
*I *621:A I *D sky130_fd_sc_hd__buf_2
*I *586:Q O *D sky130_fd_sc_hd__dfxtp_1
*CAP
1 *536:B1 0
2 *506:A 0
3 *513:A1 0
4 *621:A 0.000894767
5 *586:Q 0
6 *112:62 0.000723545
7 *112:51 0.00195124
8 *112:41 0.00606088
9 *112:31 0.00440306
10 *112:10 0.00158986
11 *112:4 0.00171206
12 *621:A *622:A 0
13 *621:A *113:31 0.000181276
14 *112:41 *129:31 0.00051265
15 *112:41 *129:33 0.000136737
16 *112:41 *129:43 9.44806e-05
17 *112:41 *136:12 0
18 *112:41 *137:31 1.65985e-05
19 *112:51 *513:C1 0
20 *112:51 *137:53 0.000180268
21 *112:62 *531:C 0
22 *112:62 *567:B1 5.50049e-05
23 *112:62 *119:23 5.50049e-05
24 *112:62 *122:14 0
25 *112:62 *129:125 0.000421838
26 *112:62 *136:12 0
27 *540:B1 *112:31 9.84794e-05
28 *544:B *112:62 0.000123659
29 *586:D *112:31 0.000100703
30 *16:8 *621:A 5.50049e-05
31 *30:15 *621:A 4.37033e-05
32 *35:8 *112:51 0
33 *54:8 *112:62 6.93553e-05
34 *60:103 *112:62 0
35 *80:59 *112:51 5.34681e-05
36 *80:81 *112:51 5.10062e-05
37 *90:20 *112:41 0
38 *92:10 *112:62 9.68263e-05
39 *94:70 *112:62 4.82229e-05
40 *95:20 *112:41 3.23515e-05
41 *97:10 *112:31 0.000300098
42 *101:10 *112:62 0
43 *103:63 *112:31 0
44 *103:63 *112:41 0
45 *104:59 *112:51 0
46 *108:8 *112:31 0
47 *108:8 *112:41 0
48 *108:39 *112:41 0.000473619
49 *109:8 *112:31 6.46399e-05
*RES
1 *586:Q *112:4 23 
2 *112:4 *112:10 42.8221 
3 *112:10 *621:A 40.835 
4 *112:4 *112:31 31.9236 
5 *112:31 *112:41 27.4194 
6 *112:41 *112:51 38.3071 
7 *112:51 *513:A1 23 
8 *112:41 *112:62 30.0282 
9 *112:62 *506:A 23 
10 *112:31 *536:B1 38 
*END

*D_NET *113 0.018572
*CONN
*I *505:A I *D sky130_fd_sc_hd__inv_2
*I *622:A I *D sky130_fd_sc_hd__buf_2
*I *515:A1 I *D sky130_fd_sc_hd__o211a_1
*I *587:Q O *D sky130_fd_sc_hd__dfxtp_1
*CAP
1 *505:A 0
2 *622:A 5.67488e-05
3 *515:A1 0
4 *587:Q 7.82102e-05
5 *113:46 0.000141088
6 *113:31 0.00443295
7 *113:29 0.0053618
8 *113:18 0.000568469
9 *113:8 0.00149119
10 *113:29 *119:44 0
11 *113:29 *122:14 0
12 *113:31 *114:14 1.83327e-05
13 *113:31 *116:33 0.00373732
14 *113:46 *116:33 9.67842e-05
15 *113:46 *122:14 0
16 *113:46 *122:27 0
17 *515:B1 *113:18 9.58714e-05
18 *556:B *113:29 5.26101e-05
19 *562:B1 *113:29 8.29089e-05
20 *587:CLK *113:18 0.00010018
21 *587:D *113:8 0.000103637
22 *621:A *622:A 0
23 *621:A *113:31 0.000181276
24 *16:8 *113:31 7.49493e-06
25 *41:8 *113:18 0
26 *41:8 *113:29 0
27 *45:8 *113:29 4.95442e-05
28 *60:51 *113:29 5.80319e-05
29 *79:18 *113:8 5.50049e-05
30 *79:18 *113:18 0
31 *79:18 *113:29 0.000184572
32 *80:15 *113:18 5.50106e-05
33 *80:23 *113:18 8.72173e-05
34 *80:23 *113:29 0.000184572
35 *80:40 *113:18 0.000412801
36 *82:14 *113:18 3.47781e-05
37 *90:20 *113:18 0
38 *90:59 *113:29 0.000186309
39 *99:27 *113:29 0
40 *99:37 *113:29 0.000279621
41 *99:48 *113:29 0.00030518
42 *104:10 *113:18 2.47015e-05
43 *104:31 *113:18 4.77554e-05
*RES
1 *587:Q *113:8 40.0507 
2 *113:8 *113:18 40.1707 
3 *113:18 *515:A1 38 
4 *113:8 *113:29 33.4564 
5 *113:29 *113:31 68.2743 
6 *113:31 *622:A 24.2014 
7 *113:29 *113:46 32.2993 
8 *113:46 *505:A 23 
*END

*D_NET *114 0.0202938
*CONN
*I *546:B1 I *D sky130_fd_sc_hd__o41a_1
*I *504:A I *D sky130_fd_sc_hd__inv_2
*I *517:A1 I *D sky130_fd_sc_hd__o211a_1
*I *623:A I *D sky130_fd_sc_hd__buf_2
*I *588:Q O *D sky130_fd_sc_hd__dfxtp_1
*CAP
1 *546:B1 0
2 *504:A 0.000529132
3 *517:A1 0
4 *623:A 0
5 *588:Q 0.000205271
6 *114:69 0.000222908
7 *114:63 0.00111511
8 *114:55 0.00269561
9 *114:45 0.00291498
10 *114:37 0.00353233
11 *114:14 0.000399701
12 *114:6 0.0024966
13 *504:A *117:22 2.71291e-05
14 *114:37 *115:30 6.12496e-06
15 *114:37 *129:95 0.00015795
16 *114:45 *129:8 2.30292e-05
17 *114:45 *129:14 0.000366057
18 *114:45 *133:66 2.3529e-05
19 *114:45 *134:39 0.000108681
20 *114:55 *115:46 0
21 *114:55 *129:8 7.43025e-06
22 *114:63 *521:A1 0.000783919
23 *114:63 *116:10 2.4754e-05
24 *114:69 *137:104 0.000200329
25 *521:B1 *114:63 1.24376e-05
26 *538:A_N *114:45 2.64616e-05
27 *555:A *114:45 0.00043586
28 *556:B *114:55 0.000249852
29 *565:A1 *114:37 0
30 *565:A1 *114:45 0
31 *588:D *114:37 0.000278196
32 *590:CLK *114:63 5.50106e-05
33 *601:A *114:45 0.000123924
34 *44:10 *114:63 0.000342081
35 *52:19 *114:37 6.08751e-05
36 *56:14 *114:37 0.000572477
37 *57:10 *114:37 5.50106e-05
38 *63:10 *114:55 0.000141052
39 *80:104 *114:69 0.000218952
40 *80:115 *114:69 0.000408138
41 *94:8 *114:37 3.46241e-05
42 *94:8 *114:45 1.02387e-05
43 *99:8 *114:45 1.14154e-05
44 *99:8 *114:55 4.96717e-05
45 *99:21 *114:55 0.000270763
46 *100:8 *114:37 4.62332e-05
47 *104:10 *114:55 0
48 *104:79 *114:69 0.000103009
49 *104:110 *114:63 0.000183733
50 *104:114 *504:A 0
51 *104:125 *504:A 0
52 *109:24 *114:45 0.000485452
53 *111:14 *114:55 0.000259389
54 *113:31 *114:14 1.83327e-05
*RES
1 *588:Q *114:6 25.5271 
2 *114:6 *114:14 37.4571 
3 *114:14 *623:A 23 
4 *114:6 *114:37 45.2636 
5 *114:37 *114:45 46.8379 
6 *114:45 *114:55 36.9779 
7 *114:55 *114:63 36.1493 
8 *114:63 *114:69 38.2443 
9 *114:69 *517:A1 23 
10 *114:55 *504:A 46.2443 
11 *114:37 *546:B1 38 
*END

*D_NET *115 0.0167464
*CONN
*I *624:A I *D sky130_fd_sc_hd__buf_2
*I *503:A I *D sky130_fd_sc_hd__inv_2
*I *519:A1 I *D sky130_fd_sc_hd__o211a_1
*I *589:Q O *D sky130_fd_sc_hd__dfxtp_1
*CAP
1 *624:A 0.000218258
2 *503:A 0.000234204
3 *519:A1 0
4 *589:Q 0.000326979
5 *115:46 0.000744108
6 *115:36 0.00191727
7 *115:30 0.00328279
8 *115:18 0.00337821
9 *115:8 0.00157963
10 *503:A *509:B 0.000111852
11 *503:A *557:B1 0.000139357
12 *503:A *120:35 1.23662e-05
13 *503:A *124:12 2.96369e-05
14 *115:18 *542:B_N 4.26807e-05
15 *115:18 *542:C 0.000139357
16 *115:18 *542:D 5.67058e-05
17 *115:18 *129:82 0.000169595
18 *115:30 *120:35 3.76017e-05
19 *115:36 *509:A_N 0.000103637
20 *115:36 *577:CLK 1.76557e-05
21 *115:36 *124:20 0.000294777
22 *115:46 *509:B 0.000582488
23 *115:46 *513:C1 5.884e-05
24 *115:46 *132:29 0
25 *115:46 *137:53 2.64616e-05
26 *115:46 *137:79 5.60056e-05
27 *115:46 *137:87 0.000181125
28 *549:A_N *115:18 4.96717e-05
29 *549:B_N *115:18 0.000440169
30 *549:C *115:18 0.000413808
31 *565:A1 *115:30 2.05503e-05
32 *35:8 *115:46 2.76611e-06
33 *60:51 *115:30 1.85961e-05
34 *60:70 *115:30 1.63382e-05
35 *64:10 *115:30 4.82774e-05
36 *78:92 *115:30 0.000535406
37 *80:59 *503:A 7.87406e-05
38 *80:81 *115:46 8.62876e-05
39 *88:10 *503:A 0.000139357
40 *94:42 *115:30 0.000756533
41 *94:70 *115:30 0.000192411
42 *103:59 *624:A 0
43 *103:59 *115:8 0.00019975
44 *103:59 *115:18 0
45 *103:61 *115:18 0
46 *104:114 *503:A 0
47 *104:114 *115:46 0
48 *114:37 *115:30 6.12496e-06
49 *114:55 *115:46 0
*RES
1 *589:Q *115:8 42.9093 
2 *115:8 *115:18 37.0607 
3 *115:18 *115:30 38.5762 
4 *115:30 *115:36 43.9614 
5 *115:36 *115:46 44.2307 
6 *115:46 *519:A1 38 
7 *115:36 *503:A 43.5929 
8 *115:8 *624:A 42.0186 
*END

*D_NET *116 0.0162247
*CONN
*I *521:A1 I *D sky130_fd_sc_hd__o211a_1
*I *625:A I *D sky130_fd_sc_hd__buf_2
*I *502:A I *D sky130_fd_sc_hd__inv_2
*I *590:Q O *D sky130_fd_sc_hd__dfxtp_1
*CAP
1 *521:A1 0.000582265
2 *625:A 4.01155e-05
3 *502:A 0.000292468
4 *590:Q 0
5 *116:33 0.00158989
6 *116:31 0.00168476
7 *116:10 0.00081642
8 *116:4 0.000971232
9 *502:A *585:D 0.000181125
10 *502:A *117:22 0.000312901
11 *116:10 *526:B 0
12 *116:10 *124:37 0.00021356
13 *116:10 *139:8 6.79006e-05
14 *116:31 *124:37 0.000244517
15 *116:33 *117:48 0.000157003
16 *116:33 *118:23 0.000252171
17 *116:33 *118:32 5.43513e-05
18 *116:33 *118:34 0.00384081
19 *521:B1 *521:A1 5.55687e-05
20 *39:10 *116:10 4.23714e-05
21 *80:59 *116:10 0
22 *80:59 *116:31 0
23 *110:12 *502:A 0.000121739
24 *110:31 *502:A 6.07084e-05
25 *111:36 *116:10 0
26 *113:31 *116:33 0.00373732
27 *113:46 *116:33 9.67842e-05
28 *114:63 *521:A1 0.000783919
29 *114:63 *116:10 2.4754e-05
*RES
1 *590:Q *116:4 23 
2 *116:4 *116:10 22.4571 
3 *116:10 *502:A 45.1464 
4 *116:10 *116:31 18.3143 
5 *116:31 *116:33 61.6043 
6 *116:33 *625:A 23.8493 
7 *116:4 *521:A1 35.5736 
*END

*D_NET *117 0.0113773
*CONN
*I *626:A I *D sky130_fd_sc_hd__buf_2
*I *523:A1 I *D sky130_fd_sc_hd__o211a_1
*I *501:A I *D sky130_fd_sc_hd__inv_2
*I *591:Q O *D sky130_fd_sc_hd__dfxtp_1
*CAP
1 *626:A 0
2 *523:A1 0
3 *501:A 0
4 *591:Q 0
5 *117:48 0.00170394
6 *117:44 0.00186578
7 *117:35 0.000132031
8 *117:22 0.00134839
9 *117:6 0.00137821
10 *117:22 *585:D 0.000227945
11 *117:22 *123:10 0
12 *117:22 *140:12 0.000583938
13 *117:35 *525:C1 1.69668e-05
14 *117:35 *126:14 0.000135547
15 *117:44 *123:10 0
16 *117:48 *118:23 0.000446281
17 *117:48 *118:32 0.000121918
18 *117:48 *118:34 0.0016457
19 *117:48 *122:14 0.000446281
20 *117:48 *122:27 0.000128723
21 *502:A *117:22 0.000312901
22 *504:A *117:22 2.71291e-05
23 *584:CLK *117:35 0.000184816
24 *585:CLK *117:22 0.000130118
25 *39:10 *117:22 5.41288e-05
26 *104:125 *117:22 0
27 *110:31 *117:22 0.000231083
28 *110:31 *117:35 9.84794e-05
29 *116:33 *117:48 0.000157003
*RES
1 *591:Q *117:6 38 
2 *117:6 *117:22 39.6707 
3 *117:22 *501:A 23 
4 *117:22 *117:35 33.7079 
5 *117:35 *523:A1 23 
6 *117:6 *117:44 17.61 
7 *117:44 *117:48 43.0443 
8 *117:48 *626:A 23 
*END

*D_NET *118 0.0135147
*CONN
*I *500:A I *D sky130_fd_sc_hd__inv_2
*I *525:A1 I *D sky130_fd_sc_hd__o211a_1
*I *627:A I *D sky130_fd_sc_hd__buf_2
*I *563:B1 I *D sky130_fd_sc_hd__o41a_1
*I *592:Q O *D sky130_fd_sc_hd__dfxtp_1
*CAP
1 *500:A 0
2 *525:A1 2.14194e-05
3 *627:A 0
4 *563:B1 0.000384669
5 *592:Q 7.58547e-05
6 *118:51 0.000528487
7 *118:34 0.00208025
8 *118:32 0.0015695
9 *118:23 0.000283975
10 *118:8 0.000705338
11 *118:34 *525:C1 0.00014196
12 *118:51 *524:A 0.000361027
13 *118:51 *126:37 5.50106e-05
14 *118:51 *126:45 0.000195248
15 *565:C1 *563:B1 0
16 *24:8 *118:34 7.05498e-05
17 *25:8 *118:34 3.71369e-05
18 *27:8 *118:51 8.47188e-05
19 *46:8 *563:B1 0
20 *68:10 *563:B1 0
21 *87:8 *525:A1 5.90675e-06
22 *87:8 *118:34 5.25848e-05
23 *87:8 *118:51 0.000144067
24 *89:76 *563:B1 0.000109282
25 *91:42 *563:B1 1.05441e-05
26 *103:51 *118:8 7.88926e-05
27 *107:60 *563:B1 1.34354e-05
28 *110:31 *118:51 0.000143655
29 *116:33 *118:23 0.000252171
30 *116:33 *118:32 5.43513e-05
31 *116:33 *118:34 0.00384081
32 *117:48 *118:23 0.000446281
33 *117:48 *118:32 0.000121918
34 *117:48 *118:34 0.0016457
*RES
1 *592:Q *118:8 39.5743 
2 *118:8 *563:B1 44.4836 
3 *118:8 *118:23 22.5193 
4 *118:23 *627:A 23 
5 *118:23 *118:32 1.83321 
6 *118:32 *118:34 55.6489 
7 *118:34 *525:A1 23.4971 
8 *118:34 *118:51 43.7336 
9 *118:51 *500:A 23 
*END

*D_NET *119 0.00540455
*CONN
*I *499:A I *D sky130_fd_sc_hd__inv_2
*I *609:A I *D sky130_fd_sc_hd__dlygate4sd3_1
*I *628:A I *D sky130_fd_sc_hd__buf_2
*I *593:Q O *D sky130_fd_sc_hd__dfxtp_1
*CAP
1 *499:A 0
2 *609:A 0
3 *628:A 0
4 *593:Q 0
5 *119:44 0.00109516
6 *119:23 0.00176168
7 *119:10 0.000171954
8 *119:4 0.000838468
9 *119:10 *120:16 0
10 *119:23 *567:B1 0.000277225
11 *119:44 *557:B1 0.000326379
12 *119:44 *120:35 0.000101624
13 *119:44 *128:10 2.25419e-05
14 *557:A1 *119:44 0.00010018
15 *591:D *119:23 2.18506e-05
16 *591:D *119:44 0.00031495
17 *60:103 *119:23 0.000111288
18 *71:14 *119:23 0.000196108
19 *99:27 *119:44 1.01436e-05
20 *112:62 *119:23 5.50049e-05
21 *113:29 *119:44 0
*RES
1 *593:Q *119:4 23 
2 *119:4 *119:10 32.61 
3 *119:10 *628:A 23 
4 *119:4 *119:23 14.6243 
5 *119:23 *609:A 23 
6 *119:23 *119:44 48.5807 
7 *119:44 *499:A 23 
*END

*D_NET *120 0.017792
*CONN
*I *527:C1 I *D sky130_fd_sc_hd__o211a_1
*I *607:A I *D sky130_fd_sc_hd__buf_2
*I *617:X O *D sky130_fd_sc_hd__buf_1
*CAP
1 *527:C1 0
2 *607:A 0.000381972
3 *617:X 7.99682e-05
4 *120:35 0.00194385
5 *120:16 0.00279013
6 *120:12 0.00541665
7 *120:10 0.00495234
8 *120:8 7.99682e-05
9 *607:A *531:C 0
10 *607:A *135:20 0.000451222
11 *607:A *135:33 6.48049e-05
12 *607:A *135:46 0
13 *120:35 *128:10 0.000116687
14 dac_in[0] *120:8 0
15 *503:A *120:35 1.23662e-05
16 *538:A_N *607:A 4.21594e-06
17 *551:A1 *120:16 2.44322e-05
18 *11:9 *607:A 0
19 *21:8 *120:16 0
20 *56:33 *120:16 5.58694e-05
21 *60:88 *607:A 2.9562e-05
22 *60:88 *120:16 3.23267e-05
23 *60:103 *120:16 0
24 *78:59 *120:35 0.000162955
25 *78:92 *120:35 0.000179007
26 *80:59 *120:35 0
27 *88:10 *120:35 7.7086e-05
28 *92:10 *607:A 0
29 *94:42 *120:35 0.000116745
30 *94:46 *607:A 2.6538e-05
31 *94:46 *120:16 1.65202e-05
32 *94:70 *120:35 0.000566931
33 *104:114 *120:35 1.23662e-05
34 *104:125 *120:35 5.82922e-05
35 *115:30 *120:35 3.76017e-05
36 *119:10 *120:16 0
37 *119:44 *120:35 0.000101624
*RES
1 *617:X *120:8 39.2014 
2 *120:8 *120:10 15 
3 *120:10 *120:12 64.4629 
4 *120:12 *120:16 23.0682 
5 *120:16 *607:A 46.4204 
6 *120:16 *120:35 38.9169 
7 *120:35 *527:C1 23 
*END

*D_NET *121 0.000298844
*CONN
*I *629:A I *D sky130_fd_sc_hd__buf_2
*I *506:Y O *D sky130_fd_sc_hd__inv_2
*CAP
1 *629:A 0
2 *506:Y 0.000149422
3 *121:8 0.000149422
4 *121:8 *122:14 0
*RES
1 *506:Y *121:8 40.2579 
2 *121:8 *629:A 38 
*END

*D_NET *122 0.00312344
*CONN
*I *630:A I *D sky130_fd_sc_hd__buf_2
*I *541:B1 I *D sky130_fd_sc_hd__a21o_1
*I *505:Y O *D sky130_fd_sc_hd__inv_2
*CAP
1 *630:A 0
2 *541:B1 0
3 *505:Y 0
4 *122:27 0.000148332
5 *122:14 0.000831132
6 *122:4 0.000979463
7 *122:14 *128:10 0.000215216
8 *541:A1 *122:14 0.000143655
9 *544:A *122:14 2.14441e-05
10 *22:8 *122:14 0
11 *23:8 *122:27 4.6318e-06
12 *66:10 *122:14 8.49194e-05
13 *67:10 *122:14 5.10884e-05
14 *78:67 *122:14 6.85594e-05
15 *112:62 *122:14 0
16 *113:29 *122:14 0
17 *113:46 *122:14 0
18 *113:46 *122:27 0
19 *117:48 *122:14 0.000446281
20 *117:48 *122:27 0.000128723
21 *121:8 *122:14 0
*RES
1 *505:Y *122:4 23 
2 *122:4 *122:14 46.1364 
3 *122:14 *541:B1 23 
4 *122:4 *122:27 32.4236 
5 *122:27 *630:A 23 
*END

*D_NET *123 0.000673773
*CONN
*I *631:A I *D sky130_fd_sc_hd__buf_2
*I *504:Y O *D sky130_fd_sc_hd__inv_2
*CAP
1 *631:A 0
2 *504:Y 0.000282753
3 *123:10 0.000282753
4 *585:CLK *123:10 2.93845e-05
5 *591:CLK *123:10 7.88828e-05
6 *117:22 *123:10 0
7 *117:44 *123:10 0
*RES
1 *504:Y *123:10 42.3086 
2 *123:10 *631:A 38 
*END

*D_NET *124 0.00725703
*CONN
*I *632:A I *D sky130_fd_sc_hd__buf_2
*I *551:B1 I *D sky130_fd_sc_hd__a21oi_1
*I *503:Y O *D sky130_fd_sc_hd__inv_2
*CAP
1 *632:A 0
2 *551:B1 0.00038325
3 *503:Y 0
4 *124:37 0.000543241
5 *124:20 0.00101734
6 *124:12 0.000880444
7 *124:4 0.000789595
8 *124:12 *128:10 5.50106e-05
9 *124:12 *128:25 0.000169595
10 *124:12 *138:8 5.21127e-05
11 *124:20 *577:CLK 9.84851e-05
12 *124:20 *126:20 0.00112884
13 *124:20 *128:10 1.4471e-05
14 *124:37 *526:B 0
15 *124:37 *128:25 0.000355023
16 *124:37 *141:8 3.21223e-05
17 *503:A *124:12 2.96369e-05
18 *541:A1 *124:20 1.94693e-05
19 *551:A2 *551:B1 4.00259e-06
20 *557:A1 *551:B1 0.00032418
21 *562:B1 *124:20 0.000182347
22 *45:8 *124:20 1.01436e-05
23 *66:10 *124:20 0.00018534
24 *67:10 *124:20 0.000135037
25 *78:92 *124:20 7.55908e-05
26 *99:37 *124:20 1.88972e-05
27 *110:12 *124:37 0
28 *115:36 *124:20 0.000294777
29 *116:10 *124:37 0.00021356
30 *116:31 *124:37 0.000244517
*RES
1 *503:Y *124:4 23 
2 *124:4 *124:12 34.0807 
3 *124:12 *124:20 49.6579 
4 *124:20 *551:B1 28.8829 
5 *124:4 *124:37 40.7921 
6 *124:37 *632:A 23 
*END

*D_NET *125 0.00563776
*CONN
*I *633:A I *D sky130_fd_sc_hd__buf_2
*I *557:B1 I *D sky130_fd_sc_hd__a21o_1
*I *502:Y O *D sky130_fd_sc_hd__inv_2
*CAP
1 *633:A 0
2 *557:B1 0.000575248
3 *502:Y 0.000123237
4 *125:29 0.000254167
5 *125:12 0.000705372
6 *125:6 0.000507528
7 *557:B1 *128:10 0.000877516
8 *557:B1 *128:25 0.0012175
9 *125:12 *525:C1 0
10 *125:12 *526:B 0
11 *125:12 *137:113 0
12 *125:29 *525:C1 0.000299196
13 *503:A *557:B1 0.000139357
14 *60:70 *557:B1 0
15 *88:10 *557:B1 0.000286571
16 *110:12 *125:12 0
17 *110:31 *125:6 0.000185428
18 *110:31 *125:29 0.000140259
19 *119:44 *557:B1 0.000326379
*RES
1 *502:Y *125:6 25.0507 
2 *125:6 *125:12 32.2579 
3 *125:12 *557:B1 46.5107 
4 *125:6 *125:29 35.5929 
5 *125:29 *633:A 23 
*END

*D_NET *126 0.0101844
*CONN
*I *634:A I *D sky130_fd_sc_hd__buf_2
*I *559:B1 I *D sky130_fd_sc_hd__a21o_1
*I *501:Y O *D sky130_fd_sc_hd__inv_2
*CAP
1 *634:A 0
2 *559:B1 0
3 *501:Y 0
4 *126:45 0.000158333
5 *126:37 0.000904112
6 *126:20 0.00191351
7 *126:14 0.0021488
8 *126:4 0.00098107
9 *126:14 *525:C1 6.22475e-05
10 *126:14 *137:113 1.12487e-05
11 *126:20 *509:A_N 0.000148008
12 *126:20 *509:B 5.3304e-05
13 *126:20 *577:CLK 8.54619e-05
14 *126:37 *524:B 0
15 *126:45 *611:A 5.67058e-05
16 *126:45 *127:10 0
17 *584:CLK *126:14 8.68016e-06
18 *27:8 *126:45 5.41385e-05
19 *60:70 *126:20 0.000135143
20 *64:10 *126:20 8.62876e-05
21 *80:130 *126:14 0.000136486
22 *86:10 *126:14 0.000224679
23 *99:27 *126:20 3.13866e-05
24 *99:48 *126:20 0
25 *104:88 *126:14 1.37349e-05
26 *110:31 *126:37 0.000877112
27 *111:36 *126:14 9.84851e-05
28 *111:36 *126:20 0.000480767
29 *117:35 *126:14 0.000135547
30 *118:51 *126:37 5.50106e-05
31 *118:51 *126:45 0.000195248
32 *124:20 *126:20 0.00112884
*RES
1 *501:Y *126:4 23 
2 *126:4 *126:14 35.9657 
3 *126:14 *126:20 45.5121 
4 *126:20 *559:B1 38 
5 *126:4 *126:37 43.4021 
6 *126:37 *126:45 34.06 
7 *126:45 *634:A 23 
*END

*D_NET *127 0.000844425
*CONN
*I *635:A I *D sky130_fd_sc_hd__buf_2
*I *500:Y O *D sky130_fd_sc_hd__inv_2
*CAP
1 *635:A 0
2 *500:Y 0.000364775
3 *127:10 0.000364775
4 *127:10 *611:A 0
5 *127:10 *643:A 9.01041e-05
6 *110:31 *127:10 2.47702e-05
7 *111:42 *127:10 0
8 *126:45 *127:10 0
*RES
1 *500:Y *127:10 43.7379 
2 *127:10 *635:A 38 
*END

*D_NET *128 0.0135022
*CONN
*I *636:A I *D sky130_fd_sc_hd__buf_2
*I *567:B1 I *D sky130_fd_sc_hd__a21oi_1
*I *499:Y O *D sky130_fd_sc_hd__inv_2
*CAP
1 *636:A 0
2 *567:B1 0.000422817
3 *499:Y 0
4 *128:31 0.000268957
5 *128:25 0.00251722
6 *128:10 0.00133206
7 *128:4 0.0031575
8 *128:25 *523:C1 2.93747e-05
9 *128:25 *642:A 0.000547666
10 *128:25 *146:10 5.97238e-05
11 *128:25 *151:8 0.000205566
12 adc_out[6] *128:31 3.23422e-05
13 *557:A1 *128:10 6.4631e-05
14 *557:A2 *128:10 2.4754e-05
15 *557:B1 *128:10 0.000877516
16 *557:B1 *128:25 0.0012175
17 *562:A1 *128:10 0.000261951
18 *583:CLK *128:25 1.22822e-05
19 *583:D *128:25 0.00017248
20 *10:10 *128:31 0.000100284
21 *45:8 *128:10 0
22 *60:70 *128:10 0.000180224
23 *60:103 *567:B1 0.000183733
24 *64:10 *128:10 0.000356724
25 *67:10 *128:10 6.10775e-05
26 *80:130 *128:25 0
27 *80:149 *128:25 0.000135037
28 *111:42 *128:31 0
29 *112:62 *567:B1 5.50049e-05
30 *119:23 *567:B1 0.000277225
31 *119:44 *128:10 2.25419e-05
32 *120:35 *128:10 0.000116687
33 *122:14 *128:10 0.000215216
34 *124:12 *128:10 5.50106e-05
35 *124:12 *128:25 0.000169595
36 *124:20 *128:10 1.4471e-05
37 *124:37 *128:25 0.000355023
*RES
1 *499:Y *128:4 23 
2 *128:4 *128:10 36.2114 
3 *128:10 *567:B1 46.7207 
4 *128:4 *128:25 41.8636 
5 *128:25 *128:31 35.075 
6 *128:31 *636:A 23 
*END

*D_NET *129 0.0117945
*CONN
*I *531:A I *D sky130_fd_sc_hd__and3_1
*I *538:C I *D sky130_fd_sc_hd__and3b_1
*I *530:A I *D sky130_fd_sc_hd__nand2_1
*I *539:D1 I *D sky130_fd_sc_hd__o2111a_1
*I *547:C_N I *D sky130_fd_sc_hd__nor3b_2
*I *542:D I *D sky130_fd_sc_hd__and4bb_1
*I *571:A1 I *D sky130_fd_sc_hd__a21o_1
*I *532:A I *D sky130_fd_sc_hd__nand3_1
*I *534:A I *D sky130_fd_sc_hd__nand4_1
*I *569:A I *D sky130_fd_sc_hd__or2_1
*I *602:X O *D sky130_fd_sc_hd__clkbuf_2
*CAP
1 *531:A 0
2 *538:C 0
3 *530:A 0
4 *539:D1 0
5 *547:C_N 0
6 *542:D 1.08768e-05
7 *571:A1 2.93271e-05
8 *532:A 1.11267e-05
9 *534:A 0
10 *569:A 0
11 *602:X 0.000156586
12 *129:125 0.000412539
13 *129:95 0.000169618
14 *129:82 0.000255102
15 *129:80 0.000991988
16 *129:61 0.000946707
17 *129:43 0.000174055
18 *129:33 0.000352491
19 *129:31 0.000791244
20 *129:18 0.000965887
21 *129:14 0.00108139
22 *129:8 0.000788957
23 *129:6 0.000618646
24 *532:A *136:54 1.05658e-05
25 *571:A1 *136:54 5.58152e-06
26 *129:43 *134:16 0.000256538
27 *129:43 *134:28 0.000143655
28 *129:80 *498:A 7.07562e-05
29 *129:80 *134:93 0
30 *129:80 *134:108 9.5877e-05
31 *129:80 *134:126 3.08858e-05
32 *129:80 *136:54 2.12347e-06
33 *129:82 *498:A 4.21281e-05
34 *129:95 *547:B 0
35 *129:125 *531:C 1.95448e-05
36 *129:125 *135:46 0.000136765
37 *507:A *129:80 8.16356e-05
38 *538:A_N *129:14 5.3304e-05
39 *539:A1 *129:80 0.00010018
40 *549:C *542:D 5.50049e-05
41 *549:C *129:82 5.3304e-05
42 *555:A *129:80 2.71291e-05
43 *573:A *129:43 3.70094e-05
44 *573:A *129:80 0
45 *52:19 *129:82 8.60475e-05
46 *52:19 *129:95 2.26489e-05
47 *60:14 *129:80 0
48 *66:10 *129:125 0.000114487
49 *74:10 *129:43 0.00023032
50 *76:19 *129:80 0
51 *78:10 *129:80 0
52 *89:27 *129:80 0
53 *89:76 *129:80 0
54 *90:45 *129:14 0
55 *90:45 *129:18 0
56 *91:42 *129:80 0
57 *92:10 *129:125 0.00012918
58 *93:12 *532:A 4.77164e-06
59 *93:12 *129:43 3.5471e-05
60 *93:12 *129:80 0
61 *94:8 *129:95 2.54046e-05
62 *99:8 *129:6 4.96717e-05
63 *99:8 *129:8 6.17437e-06
64 *99:21 *129:6 0.000102366
65 *103:16 *129:18 0
66 *103:16 *129:31 4.36401e-06
67 *107:118 *129:14 5.44006e-05
68 *107:118 *129:18 4.21594e-06
69 *112:41 *129:31 0.00051265
70 *112:41 *129:33 0.000136737
71 *112:41 *129:43 9.44806e-05
72 *112:62 *129:125 0.000421838
73 *114:37 *129:95 0.00015795
74 *114:45 *129:8 2.30292e-05
75 *114:45 *129:14 0.000366057
76 *114:55 *129:8 7.43025e-06
77 *115:18 *542:D 5.67058e-05
78 *115:18 *129:82 0.000169595
*RES
1 *602:X *129:6 26.0036 
2 *129:6 *129:8 1.09786 
3 *129:8 *129:14 28.8371 
4 *129:14 *129:18 4.76429 
5 *129:18 *569:A 38 
6 *129:18 *129:31 10.0944 
7 *129:31 *129:33 0.485333 
8 *129:33 *129:43 28.4197 
9 *129:43 *534:A 23 
10 *129:33 *532:A 46.3211 
11 *129:31 *129:61 8 
12 *129:61 *571:A1 38.3211 
13 *129:61 *129:80 30.8361 
14 *129:80 *129:82 2.52714 
15 *129:82 *542:D 23.6214 
16 *129:82 *129:95 33.3143 
17 *129:95 *547:C_N 23 
18 *129:80 *539:D1 23 
19 *129:14 *530:A 38 
20 *129:8 *538:C 23 
21 *129:6 *129:125 39.2593 
22 *129:125 *531:A 23 
*END

*D_NET *130 0.00464053
*CONN
*I *524:B I *D sky130_fd_sc_hd__or2_1
*I *522:B I *D sky130_fd_sc_hd__or2_1
*I *520:B I *D sky130_fd_sc_hd__or2_1
*I *516:B I *D sky130_fd_sc_hd__or2_1
*I *618:X O *D sky130_fd_sc_hd__buf_1
*CAP
1 *524:B 0.000463071
2 *522:B 0
3 *520:B 2.79004e-05
4 *516:B 0.000199382
5 *618:X 0.000351775
6 *130:32 0.000605996
7 *130:21 0.000519301
8 *130:8 0.000899633
9 *516:B *144:6 5.50049e-05
10 *520:B *520:A 5.50106e-05
11 *524:B *146:10 7.55491e-05
12 *130:8 *640:A 0.000190662
13 *130:8 *137:87 0.000356724
14 *130:8 *137:104 9.67842e-05
15 *130:21 *150:8 0
16 *130:32 *146:10 6.07611e-06
17 *584:CLK *524:B 0
18 *36:8 *130:21 0
19 *38:8 *524:B 0.000169683
20 *80:98 *130:8 0.000484539
21 *80:115 *130:8 8.34394e-05
22 *80:149 *524:B 0
23 *104:79 *516:B 0
24 *104:79 *130:21 0
25 *104:88 *524:B 0
26 *104:88 *130:21 0
27 *104:88 *130:32 0
28 *126:37 *524:B 0
*RES
1 *618:X *130:8 48.15 
2 *130:8 *516:B 41.5836 
3 *130:8 *130:21 6.48357 
4 *130:21 *520:B 38.6214 
5 *130:21 *130:32 2.61 
6 *130:32 *522:B 38 
7 *130:32 *524:B 46.9486 
*END

*D_NET *131 0.00535288
*CONN
*I *637:A I *D sky130_fd_sc_hd__buf_2
*I *512:A I *D sky130_fd_sc_hd__or2_1
*I *578:Q O *D sky130_fd_sc_hd__dfxtp_1
*CAP
1 *637:A 0
2 *512:A 0.000157439
3 *578:Q 9.07291e-05
4 *131:23 0.00109942
5 *131:10 0.00125686
6 *131:8 9.07291e-05
7 *512:A *142:25 0.000307645
8 *131:8 *132:29 4.59027e-05
9 *131:23 *142:25 0.00230415
*RES
1 *578:Q *131:8 39.9057 
2 *131:8 *131:10 15 
3 *131:10 *512:A 26.9771 
4 *131:10 *131:23 29.7043 
5 *131:23 *637:A 23 
*END

*D_NET *132 0.00641822
*CONN
*I *514:B I *D sky130_fd_sc_hd__or2_1
*I *526:B I *D sky130_fd_sc_hd__or2_1
*I *618:A I *D sky130_fd_sc_hd__buf_1
*I *518:B I *D sky130_fd_sc_hd__or2_1
*I *512:B I *D sky130_fd_sc_hd__or2_1
*I *644:X O *D sky130_fd_sc_hd__buf_1
*CAP
1 *514:B 0
2 *526:B 0.000547422
3 *618:A 0
4 *518:B 1.50079e-05
5 *512:B 0
6 *644:X 0.000321364
7 *132:31 1.50079e-05
8 *132:29 0.00111952
9 *132:18 0.00136056
10 *132:12 0.00081217
11 *132:8 0.00034507
12 *518:B *518:A 5.50049e-05
13 *132:8 *142:8 0
14 *132:12 *514:A 5.50106e-05
15 *132:18 *514:A 0.000165744
16 *132:18 *142:25 0.000867882
17 *132:29 *137:93 0
18 *132:29 *142:25 9.84794e-05
19 *132:29 *149:8 0
20 *33:10 *132:8 0
21 *35:8 *132:29 0
22 *80:98 *518:B 5.50049e-05
23 *81:10 *132:29 0
24 *82:14 *132:8 0
25 *104:59 *132:29 0
26 *111:8 *526:B 0.000165593
27 *111:14 *526:B 0.00025307
28 *111:36 *526:B 0.000120396
29 *115:46 *132:29 0
30 *116:10 *526:B 0
31 *124:37 *526:B 0
32 *125:12 *526:B 0
33 *131:8 *132:29 4.59027e-05
*RES
1 *644:X *132:8 43.4271 
2 *132:8 *132:12 15.6214 
3 *132:12 *132:18 14.0029 
4 *132:18 *512:B 23 
5 *132:18 *132:29 25.3986 
6 *132:29 *132:31 15 
7 *132:31 *518:B 23.6214 
8 *132:31 *618:A 23 
9 *132:29 *526:B 49.4136 
10 *132:12 *514:B 23 
*END

*D_NET *133 0.0124709
*CONN
*I *542:A_N I *D sky130_fd_sc_hd__and4bb_1
*I *546:A1 I *D sky130_fd_sc_hd__o41a_1
*I *552:A I *D sky130_fd_sc_hd__nor2_2
*I *560:A I *D sky130_fd_sc_hd__or4_1
*I *543:A I *D sky130_fd_sc_hd__or4_1
*I *511:D_N I *D sky130_fd_sc_hd__or4b_4
*I *533:A_N I *D sky130_fd_sc_hd__and2b_1
*I *535:A I *D sky130_fd_sc_hd__or2_1
*I *575:A I *D sky130_fd_sc_hd__nand2_1
*I *536:A1 I *D sky130_fd_sc_hd__o21a_1
*I *603:X O *D sky130_fd_sc_hd__clkbuf_2
*CAP
1 *542:A_N 0.000285305
2 *546:A1 4.72518e-05
3 *552:A 0
4 *560:A 0.000324435
5 *543:A 2.79296e-05
6 *511:D_N 0.000163157
7 *533:A_N 0
8 *535:A 0
9 *575:A 0
10 *536:A1 3.34522e-05
11 *603:X 0
12 *133:78 0.000470575
13 *133:76 0.000603924
14 *133:74 0.000565503
15 *133:66 0.000939663
16 *133:51 0.000354809
17 *133:47 0.000511337
18 *133:31 0.000257184
19 *133:23 0.000557136
20 *133:13 0.000664306
21 *133:4 0.000199674
22 *511:D_N *528:A 2.4754e-05
23 *511:D_N *134:139 4.40835e-05
24 *511:D_N *136:25 0.000139357
25 *542:A_N *134:54 9.20311e-06
26 *542:A_N *136:69 0
27 *560:A *135:33 1.59094e-05
28 *133:66 *134:39 0.000138727
29 *133:66 *134:43 5.50106e-05
30 *133:66 *134:80 6.07175e-05
31 *133:66 *134:93 0.00018282
32 *133:66 *136:69 1.34354e-05
33 *133:74 *134:80 0
34 *511:A *511:D_N 0.000136733
35 *511:A *133:78 4.6318e-06
36 *528:B *511:D_N 1.76557e-05
37 *530:B *543:A 5.50049e-05
38 *533:B *133:66 4.08664e-05
39 *546:A4 *546:A1 9.5877e-05
40 *546:A4 *133:66 9.74625e-05
41 *546:A4 *133:74 0.000348934
42 *549:C *542:A_N 9.67842e-05
43 *560:B *560:A 3.33966e-05
44 *560:D *560:A 0.000137651
45 *565:A2 *542:A_N 3.3746e-05
46 *570:B *511:D_N 0
47 *574:A *133:23 5.01716e-05
48 *599:A *133:74 5.50049e-05
49 *51:8 *133:31 0
50 *58:8 *542:A_N 0.000191157
51 *60:6 *133:74 2.02872e-05
52 *60:14 *133:74 0.000121021
53 *62:12 *133:74 0.000909782
54 *74:10 *133:23 0
55 *89:33 *133:47 5.47927e-05
56 *89:48 *542:A_N 6.02277e-06
57 *89:48 *133:23 2.82307e-05
58 *89:48 *133:47 7.30978e-05
59 *91:23 *511:D_N 0
60 *91:23 *133:78 0
61 *91:27 *133:74 0.000982592
62 *94:8 *133:66 0.000140958
63 *94:18 *542:A_N 9.67842e-05
64 *95:10 *133:23 4.38844e-05
65 *95:12 *133:23 0.00010018
66 *95:12 *133:31 0.000129522
67 *95:20 *133:31 9.67842e-05
68 *95:31 *133:31 7.81176e-05
69 *98:10 *542:A_N 9.04083e-05
70 *100:16 *133:66 4.39725e-05
71 *107:21 *542:A_N 9.48381e-06
72 *107:21 *133:47 7.06124e-05
73 *107:27 *542:A_N 5.97612e-05
74 *107:27 *133:51 5.50106e-05
75 *107:27 *133:66 9.84794e-05
76 *107:54 *542:A_N 4.74809e-05
77 *107:72 *560:A 5.97612e-05
78 *107:74 *560:A 4.6318e-06
79 *107:74 *133:78 0.000201076
80 *108:8 *133:23 0
81 *108:12 *133:13 5.50106e-05
82 *108:21 *133:13 0.00030262
83 *108:21 *133:47 0.00026808
84 *109:24 *133:66 0.000114156
85 *114:45 *133:66 2.3529e-05
*RES
1 *603:X *133:4 23 
2 *133:4 *536:A1 23.6214 
3 *133:4 *133:13 4.43286 
4 *133:13 *133:23 36.3386 
5 *133:23 *133:31 34.785 
6 *133:31 *575:A 23 
7 *133:23 *535:A 23 
8 *133:13 *133:47 20.9657 
9 *133:47 *133:51 15.6214 
10 *133:51 *533:A_N 23 
11 *133:51 *133:66 40.0464 
12 *133:66 *133:74 19.7407 
13 *133:74 *133:76 15 
14 *133:76 *133:78 5.77929 
15 *133:78 *511:D_N 42.1843 
16 *133:78 *543:A 38.6214 
17 *133:76 *560:A 43.6136 
18 *133:74 *552:A 23 
19 *133:66 *546:A1 24.595 
20 *133:47 *542:A_N 45.2293 
*END

*D_NET *134 0.0112684
*CONN
*I *543:C I *D sky130_fd_sc_hd__or4_1
*I *571:B1 I *D sky130_fd_sc_hd__a21o_1
*I *532:B I *D sky130_fd_sc_hd__nand3_1
*I *563:A3 I *D sky130_fd_sc_hd__o41a_1
*I *539:C1 I *D sky130_fd_sc_hd__o2111a_1
*I *546:A3 I *D sky130_fd_sc_hd__o41a_1
*I *547:A I *D sky130_fd_sc_hd__nor3b_2
*I *542:B_N I *D sky130_fd_sc_hd__and4bb_1
*I *537:B I *D sky130_fd_sc_hd__and2b_1
*I *534:C I *D sky130_fd_sc_hd__nand4_1
*I *604:X O *D sky130_fd_sc_hd__buf_2
*CAP
1 *543:C 0
2 *571:B1 0
3 *532:B 1.96931e-05
4 *563:A3 0
5 *539:C1 0
6 *546:A3 0
7 *547:A 0.000199982
8 *542:B_N 8.27467e-05
9 *537:B 5.15918e-05
10 *534:C 0
11 *604:X 0
12 *134:139 0.000489834
13 *134:126 4.66154e-05
14 *134:108 0.000349904
15 *134:93 0.000603248
16 *134:80 0.000377679
17 *134:54 0.000366238
18 *134:43 0.000301536
19 *134:39 0.000693265
20 *134:28 0.000246137
21 *134:16 0.000852717
22 *134:10 0.00030214
23 *134:6 0.000245576
24 *134:4 0.000610435
25 *532:B *136:40 2.93104e-06
26 *547:A *547:B 0.000173371
27 *547:A *136:80 1.01436e-05
28 *547:A *136:91 0.000100778
29 *134:6 *136:40 0.000367673
30 *134:10 *136:40 3.98818e-05
31 *134:10 *136:42 3.22879e-05
32 *134:10 *136:54 2.93845e-05
33 *134:16 *136:54 6.32268e-05
34 *134:28 *534:D 7.35913e-05
35 *134:39 *136:69 0
36 *134:43 *537:A_N 5.50106e-05
37 *134:54 *136:69 3.70187e-05
38 *134:54 *136:80 0.000151898
39 *134:108 *498:A 0.000320471
40 *134:139 *136:25 0.000258923
41 *134:139 *136:40 0.000301719
42 *511:D_N *134:139 4.40835e-05
43 *539:B1 *134:93 5.80693e-05
44 *539:B1 *134:108 6.01895e-05
45 *542:A_N *134:54 9.20311e-06
46 *546:A2 *134:93 5.50049e-05
47 *565:A1 *134:93 0.00023462
48 *565:A2 *547:A 0.000287389
49 *565:C1 *134:108 4.86681e-05
50 *570:B *134:139 0.000270405
51 *573:A *134:39 0
52 *574:A *134:28 0
53 *50:8 *134:28 0
54 *55:8 *537:B 1.40958e-05
55 *55:8 *134:43 2.62931e-05
56 *56:14 *547:A 2.32004e-05
57 *68:10 *134:108 0.00010018
58 *74:10 *134:28 1.03955e-05
59 *76:19 *134:39 0
60 *78:10 *134:93 2.36844e-05
61 *78:10 *134:108 9.28078e-06
62 *89:27 *134:126 0
63 *90:45 *134:139 6.00136e-06
64 *93:12 *134:10 5.67058e-05
65 *93:12 *134:16 9.69849e-05
66 *93:19 *134:6 0.000226306
67 *93:19 *134:10 0.000213069
68 *95:6 *134:28 6.17437e-06
69 *98:10 *537:B 5.67058e-05
70 *98:10 *547:A 2.68751e-05
71 *98:10 *134:54 0.000161121
72 *100:16 *134:43 5.61255e-06
73 *107:10 *134:28 1.14452e-05
74 *107:21 *134:28 7.48331e-05
75 *107:54 *547:A 7.85467e-05
76 *114:45 *134:39 0.000108681
77 *115:18 *542:B_N 4.26807e-05
78 *129:43 *134:16 0.000256538
79 *129:43 *134:28 0.000143655
80 *129:80 *134:93 0
81 *129:80 *134:108 9.5877e-05
82 *129:80 *134:126 3.08858e-05
83 *133:66 *134:39 0.000138727
84 *133:66 *134:43 5.50106e-05
85 *133:66 *134:80 6.07175e-05
86 *133:66 *134:93 0.00018282
87 *133:74 *134:80 0
*RES
1 *604:X *134:4 23 
2 *134:4 *134:6 4.43286 
3 *134:6 *134:10 3.50071 
4 *134:10 *134:16 5.55143 
5 *134:16 *134:28 34.8471 
6 *134:28 *534:C 23 
7 *134:16 *134:39 37.1879 
8 *134:39 *134:43 3.02429 
9 *134:43 *537:B 24.0979 
10 *134:43 *134:54 17.61 
11 *134:54 *542:B_N 39.1186 
12 *134:54 *547:A 43.1164 
13 *134:39 *134:80 2.07143 
14 *134:80 *546:A3 23 
15 *134:80 *134:93 35.365 
16 *134:93 *539:C1 23 
17 *134:93 *134:108 37.3329 
18 *134:108 *563:A3 23 
19 *134:10 *532:B 23.4971 
20 *134:6 *134:126 30.8493 
21 *134:126 *571:B1 23 
22 *134:4 *134:139 40.9786 
23 *134:139 *543:C 23 
*END

*D_NET *135 0.00465358
*CONN
*I *511:B I *D sky130_fd_sc_hd__or4b_4
*I *510:B I *D sky130_fd_sc_hd__nor4b_1
*I *538:B I *D sky130_fd_sc_hd__and3b_1
*I *531:B I *D sky130_fd_sc_hd__and3_1
*I *560:C I *D sky130_fd_sc_hd__or4_1
*I *605:X O *D sky130_fd_sc_hd__buf_1
*CAP
1 *511:B 0
2 *510:B 0
3 *538:B 0
4 *531:B 0
5 *560:C 0
6 *605:X 0.000220625
7 *135:46 0.000341376
8 *135:33 0.000569303
9 *135:20 0.000541266
10 *135:16 0.000492882
11 *135:6 0.000400168
12 *135:6 *136:12 0.000136738
13 *135:6 *137:31 4.94073e-05
14 *135:16 *137:8 0
15 *135:20 *137:8 0.000138727
16 *135:46 *531:C 8.97403e-05
17 *510:C *135:16 6.51485e-05
18 *510:C *135:20 1.02561e-05
19 *530:B *135:16 9.67842e-05
20 *530:B *135:20 5.62433e-06
21 *538:A_N *135:20 0
22 *560:A *135:33 1.59094e-05
23 *607:A *135:20 0.000451222
24 *607:A *135:33 6.48049e-05
25 *607:A *135:46 0
26 *53:8 *135:16 4.6595e-05
27 *60:88 *135:20 0.000124281
28 *60:88 *135:33 2.70366e-05
29 *66:10 *135:33 0.000143655
30 *66:10 *135:46 0.000128723
31 *79:8 *135:16 1.32314e-05
32 *92:10 *135:46 0.000135304
33 *105:8 *135:16 0.000135168
34 *107:74 *135:20 7.28438e-05
35 *129:125 *135:46 0.000136765
*RES
1 *605:X *135:6 26.0036 
2 *135:6 *135:16 33.9771 
3 *135:16 *135:20 23.5964 
4 *135:20 *560:C 38 
5 *135:20 *135:33 18.8529 
6 *135:33 *531:B 23 
7 *135:33 *135:46 37.3536 
8 *135:46 *538:B 23 
9 *135:16 *510:B 23 
10 *135:6 *511:B 23 
*END

*D_NET *136 0.0129522
*CONN
*I *531:C I *D sky130_fd_sc_hd__and3_1
*I *571:A2 I *D sky130_fd_sc_hd__a21o_1
*I *532:C I *D sky130_fd_sc_hd__nand3_1
*I *547:B I *D sky130_fd_sc_hd__nor3b_2
*I *498:A I *D sky130_fd_sc_hd__inv_2
*I *542:C I *D sky130_fd_sc_hd__and4bb_1
*I *537:A_N I *D sky130_fd_sc_hd__and2b_1
*I *534:D I *D sky130_fd_sc_hd__nand4_1
*I *569:B I *D sky130_fd_sc_hd__or2_1
*I *511:C I *D sky130_fd_sc_hd__or4b_4
*I *606:X O *D sky130_fd_sc_hd__buf_2
*CAP
1 *531:C 0.000311296
2 *571:A2 0
3 *532:C 0
4 *547:B 0.000130915
5 *498:A 0.000286094
6 *542:C 0.000107644
7 *537:A_N 1.80182e-05
8 *534:D 5.73049e-05
9 *569:B 0
10 *511:C 0
11 *606:X 0
12 *136:91 0.000472943
13 *136:80 0.000250365
14 *136:69 0.000500915
15 *136:58 0.000497783
16 *136:54 0.00056994
17 *136:42 0.000540003
18 *136:40 0.000395132
19 *136:25 0.000894798
20 *136:12 0.000725581
21 *136:6 0.00052278
22 *136:12 *137:31 7.07164e-05
23 *511:A *136:12 9.84794e-05
24 *511:A *136:25 8.70252e-05
25 *511:D_N *136:25 0.000139357
26 *528:B *136:25 2.47094e-05
27 *532:A *136:54 1.05658e-05
28 *532:B *136:40 2.93104e-06
29 *539:A1 *498:A 0.00010018
30 *542:A_N *136:69 0
31 *547:A *547:B 0.000173371
32 *547:A *136:80 1.01436e-05
33 *547:A *136:91 0.000100778
34 *549:C *498:A 0.000265472
35 *571:A1 *136:54 5.58152e-06
36 *572:A *136:40 2.93747e-05
37 *572:C *136:40 1.76557e-05
38 *573:A *136:69 0
39 *607:A *531:C 0
40 *11:9 *531:C 0.000360734
41 *11:9 *136:12 0.00023943
42 *52:19 *498:A 9.67842e-05
43 *55:8 *537:A_N 2.93845e-05
44 *74:10 *534:D 0.000136738
45 *74:10 *136:54 0.000446281
46 *89:6 *136:25 0.000271476
47 *89:16 *136:25 0.00017184
48 *89:16 *136:40 0.000275905
49 *94:8 *547:B 1.58805e-05
50 *94:8 *136:69 6.4393e-05
51 *94:8 *136:80 7.56417e-05
52 *94:8 *136:91 5.31444e-05
53 *94:18 *498:A 9.67842e-05
54 *94:27 *498:A 0.000401795
55 *95:6 *534:D 1.57571e-05
56 *107:10 *136:58 1.14452e-05
57 *107:21 *136:58 6.16439e-05
58 *107:21 *136:69 0.000464402
59 *112:41 *136:12 0
60 *112:62 *531:C 0
61 *112:62 *136:12 0
62 *115:18 *542:C 0.000139357
63 *129:80 *498:A 7.07562e-05
64 *129:80 *136:54 2.12347e-06
65 *129:82 *498:A 4.21281e-05
66 *129:95 *547:B 0
67 *129:125 *531:C 1.95448e-05
68 *133:66 *136:69 1.34354e-05
69 *134:6 *136:40 0.000367673
70 *134:10 *136:40 3.98818e-05
71 *134:10 *136:42 3.22879e-05
72 *134:10 *136:54 2.93845e-05
73 *134:16 *136:54 6.32268e-05
74 *134:28 *534:D 7.35913e-05
75 *134:39 *136:69 0
76 *134:43 *537:A_N 5.50106e-05
77 *134:54 *136:69 3.70187e-05
78 *134:54 *136:80 0.000151898
79 *134:108 *498:A 0.000320471
80 *134:139 *136:25 0.000258923
81 *134:139 *136:40 0.000301719
82 *135:6 *136:12 0.000136738
83 *135:46 *531:C 8.97403e-05
*RES
1 *606:X *136:6 38 
2 *136:6 *136:12 20.365 
3 *136:12 *511:C 23 
4 *136:12 *136:25 11.9936 
5 *136:25 *569:B 23 
6 *136:25 *136:40 11.89 
7 *136:40 *136:42 0.621429 
8 *136:42 *136:54 38.9071 
9 *136:54 *136:58 15.8493 
10 *136:58 *534:D 39.5743 
11 *136:58 *136:69 8.59643 
12 *136:69 *537:A_N 38.6214 
13 *136:69 *136:80 2.25786 
14 *136:80 *542:C 39.5743 
15 *136:80 *136:91 1.55357 
16 *136:91 *498:A 47.86 
17 *136:91 *547:B 40.61 
18 *136:42 *532:C 23 
19 *136:40 *571:A2 23 
20 *136:6 *531:C 45.0636 
*END

*D_NET *137 0.0153508
*CONN
*I *519:C1 I *D sky130_fd_sc_hd__o211a_1
*I *525:C1 I *D sky130_fd_sc_hd__o211a_1
*I *523:C1 I *D sky130_fd_sc_hd__o211a_1
*I *521:C1 I *D sky130_fd_sc_hd__o211a_1
*I *517:C1 I *D sky130_fd_sc_hd__o211a_1
*I *509:B I *D sky130_fd_sc_hd__and2b_1
*I *513:C1 I *D sky130_fd_sc_hd__o211a_1
*I *515:C1 I *D sky130_fd_sc_hd__o211a_1
*I *529:A I *D sky130_fd_sc_hd__nand2_2
*I *528:A I *D sky130_fd_sc_hd__and2_2
*I *607:X O *D sky130_fd_sc_hd__buf_2
*CAP
1 *519:C1 0
2 *525:C1 0.000306506
3 *523:C1 3.09722e-05
4 *521:C1 0
5 *517:C1 0
6 *509:B 0.000303015
7 *513:C1 0.000136919
8 *515:C1 0
9 *529:A 2.43835e-05
10 *528:A 2.24725e-05
11 *607:X 0.000250717
12 *137:113 0.000629084
13 *137:104 0.000647705
14 *137:93 9.956e-05
15 *137:87 0.00110374
16 *137:79 0.000775259
17 *137:55 0.000439933
18 *137:53 0.000747131
19 *137:46 0.000207682
20 *137:40 0.00102646
21 *137:31 0.00101311
22 *137:10 0.000812374
23 *137:8 0.000250717
24 *509:B *577:CLK 5.3304e-05
25 *137:93 *149:8 0
26 *503:A *509:B 0.000111852
27 *510:C *137:8 9.20311e-06
28 *511:A *528:A 9.84794e-05
29 *511:A *137:8 7.97983e-05
30 *511:A *137:31 0.000227208
31 *511:D_N *528:A 2.4754e-05
32 *519:B1 *137:87 0.000287777
33 *528:B *528:A 0.000143655
34 *528:B *137:31 0.00038606
35 *11:9 *137:31 0
36 *53:8 *137:31 0.000330811
37 *79:8 *137:31 2.07242e-05
38 *80:15 *137:31 5.67058e-05
39 *80:23 *137:31 5.50106e-05
40 *80:59 *509:B 0.000690325
41 *80:59 *513:C1 0.000188344
42 *80:98 *137:87 0.000156349
43 *80:104 *137:93 5.33546e-05
44 *80:104 *137:104 5.94125e-05
45 *80:115 *137:104 1.94522e-05
46 *80:115 *137:113 4.21594e-06
47 *80:130 *137:113 7.28335e-05
48 *80:149 *525:C1 0
49 *86:10 *525:C1 1.01436e-05
50 *86:10 *137:113 0.000167443
51 *90:10 *529:A 0
52 *90:10 *137:31 0.000146261
53 *90:10 *137:40 5.70419e-05
54 *90:12 *137:31 0.000173898
55 *90:20 *137:31 5.50106e-05
56 *90:45 *137:8 0
57 *104:10 *137:46 6.07394e-05
58 *105:8 *137:8 0
59 *106:25 *137:31 4.6318e-06
60 *107:74 *137:8 6.68793e-05
61 *108:39 *137:8 2.26497e-05
62 *112:41 *137:31 1.65985e-05
63 *112:51 *513:C1 0
64 *112:51 *137:53 0.000180268
65 *114:69 *137:104 0.000200329
66 *115:46 *509:B 0.000582488
67 *115:46 *513:C1 5.884e-05
68 *115:46 *137:53 2.64616e-05
69 *115:46 *137:79 5.60056e-05
70 *115:46 *137:87 0.000181125
71 *117:35 *525:C1 1.69668e-05
72 *118:34 *525:C1 0.00014196
73 *125:12 *525:C1 0
74 *125:12 *137:113 0
75 *125:29 *525:C1 0.000299196
76 *126:14 *525:C1 6.22475e-05
77 *126:14 *137:113 1.12487e-05
78 *126:20 *509:B 5.3304e-05
79 *128:25 *523:C1 2.93747e-05
80 *130:8 *137:87 0.000356724
81 *130:8 *137:104 9.67842e-05
82 *132:29 *137:93 0
83 *135:6 *137:31 4.94073e-05
84 *135:16 *137:8 0
85 *135:20 *137:8 0.000138727
86 *136:12 *137:31 7.07164e-05
*RES
1 *607:X *137:8 43.075 
2 *137:8 *137:10 15 
3 *137:10 *528:A 24.5743 
4 *137:10 *137:31 47.835 
5 *137:31 *529:A 23.4971 
6 *137:31 *137:40 3.95643 
7 *137:40 *137:46 32.9621 
8 *137:46 *515:C1 23 
9 *137:40 *137:53 11.1029 
10 *137:53 *137:55 15 
11 *137:55 *513:C1 40.9621 
12 *137:55 *509:B 47.9221 
13 *137:53 *137:79 2.54786 
14 *137:79 *137:87 12.5943 
15 *137:87 *137:93 32.2579 
16 *137:93 *517:C1 23 
17 *137:87 *137:104 22.9336 
18 *137:104 *521:C1 38 
19 *137:104 *137:113 5.77929 
20 *137:113 *523:C1 38.6214 
21 *137:113 *525:C1 45.3536 
22 *137:79 *519:C1 23 
*END

*D_NET *138 0.00103543
*CONN
*I *577:CLK I *D sky130_fd_sc_hd__dfxtp_1
*I *508:Y O *D sky130_fd_sc_hd__inv_2
*CAP
1 *577:CLK 8.51693e-05
2 *508:Y 7.65622e-05
3 *138:8 0.000161731
4 *577:CLK *509:A_N 0.000267161
5 *509:B *577:CLK 5.3304e-05
6 *104:114 *138:8 0.000137788
7 *115:36 *577:CLK 1.76557e-05
8 *124:12 *138:8 5.21127e-05
9 *124:20 *577:CLK 9.84851e-05
10 *126:20 *577:CLK 8.54619e-05
*RES
1 *508:Y *138:8 39.9057 
2 *138:8 *577:CLK 41.48 
*END

*D_NET *139 0.00144272
*CONN
*I *509:A_N I *D sky130_fd_sc_hd__and2b_1
*I *608:X O *D sky130_fd_sc_hd__dlygate4sd3_1
*CAP
1 *509:A_N 0.000248077
2 *608:X 9.58384e-05
3 *139:8 0.000343916
4 *577:CLK *509:A_N 0.000267161
5 *577:D *509:A_N 0.000168177
6 *111:8 *139:8 0
7 *111:36 *139:8 0
8 *115:36 *509:A_N 0.000103637
9 *116:10 *139:8 6.79006e-05
10 *126:20 *509:A_N 0.000148008
*RES
1 *608:X *139:8 39.9057 
2 *139:8 *509:A_N 45.2914 
*END

*D_NET *140 0.0027173
*CONN
*I *527:A1 I *D sky130_fd_sc_hd__o211a_1
*I *609:X O *D sky130_fd_sc_hd__dlygate4sd3_1
*CAP
1 *527:A1 0
2 *609:X 0.000659027
3 *140:12 0.000659027
4 *585:CLK *140:12 0.000158353
5 *591:CLK *140:12 0.00048708
6 *591:D *140:12 0.000169878
7 *117:22 *140:12 0.000583938
*RES
1 *609:X *140:12 38.1007 
2 *140:12 *527:A1 23 
*END

*D_NET *141 0.000779872
*CONN
*I *585:D I *D sky130_fd_sc_hd__dfxtp_1
*I *610:X O *D sky130_fd_sc_hd__dlygate4sd3_1
*CAP
1 *585:D 7.64479e-05
2 *610:X 8.01893e-05
3 *141:8 0.000156637
4 *502:A *585:D 0.000181125
5 *110:12 *141:8 2.54046e-05
6 *117:22 *585:D 0.000227945
7 *124:37 *141:8 3.21223e-05
*RES
1 *610:X *141:8 39.5536 
2 *141:8 *585:D 40.5737 
*END

*D_NET *142 0.00697076
*CONN
*I *638:A I *D sky130_fd_sc_hd__buf_2
*I *514:A I *D sky130_fd_sc_hd__or2_1
*I *579:Q O *D sky130_fd_sc_hd__dfxtp_1
*CAP
1 *638:A 0
2 *514:A 0.000195889
3 *579:Q 0.000178014
4 *142:25 0.00120335
5 *142:10 0.00139924
6 *142:8 0.000178014
7 *512:A *142:25 0.000307645
8 *81:10 *142:25 1.73399e-05
9 *131:23 *142:25 0.00230415
10 *132:8 *142:8 0
11 *132:12 *514:A 5.50106e-05
12 *132:18 *514:A 0.000165744
13 *132:18 *142:25 0.000867882
14 *132:29 *142:25 9.84794e-05
*RES
1 *579:Q *142:8 40.61 
2 *142:8 *142:10 15 
3 *142:10 *514:A 27.93 
4 *142:10 *142:25 37.9486 
5 *142:25 *638:A 23 
*END

*D_NET *143 0.000680294
*CONN
*I *524:A I *D sky130_fd_sc_hd__or2_1
*I *611:X O *D sky130_fd_sc_hd__dlygate4sd3_1
*CAP
1 *524:A 0.000105776
2 *611:X 0.000105776
3 *27:8 *524:A 7.53384e-06
4 *87:8 *524:A 0.00010018
5 *118:51 *524:A 0.000361027
*RES
1 *611:X *524:A 49.9564 
*END

*D_NET *144 0.000731311
*CONN
*I *516:A I *D sky130_fd_sc_hd__or2_1
*I *612:X O *D sky130_fd_sc_hd__dlygate4sd3_1
*CAP
1 *516:A 0
2 *612:X 0.000338153
3 *144:6 0.000338153
4 *516:B *144:6 5.50049e-05
*RES
1 *612:X *144:6 29.3386 
2 *144:6 *516:A 23 
*END

*D_NET *145 0.000351428
*CONN
*I *520:A I *D sky130_fd_sc_hd__or2_1
*I *613:X O *D sky130_fd_sc_hd__dlygate4sd3_1
*CAP
1 *520:A 0.000148209
2 *613:X 0.000148209
3 *520:B *520:A 5.50106e-05
*RES
1 *613:X *520:A 48.5271 
*END

*D_NET *146 0.00137153
*CONN
*I *522:A I *D sky130_fd_sc_hd__or2_1
*I *614:X O *D sky130_fd_sc_hd__dlygate4sd3_1
*CAP
1 *522:A 0
2 *614:X 0.000598844
3 *146:10 0.000598844
4 *146:10 *151:8 2.30292e-05
5 *524:B *146:10 7.55491e-05
6 *583:D *146:10 9.4636e-06
7 *104:88 *146:10 0
8 *128:25 *146:10 5.97238e-05
9 *130:32 *146:10 6.07611e-06
*RES
1 *614:X *146:10 47.0729 
2 *146:10 *522:A 38 
*END

*D_NET *147 0.000583162
*CONN
*I *518:A I *D sky130_fd_sc_hd__or2_1
*I *615:X O *D sky130_fd_sc_hd__dlygate4sd3_1
*CAP
1 *518:A 0.000178211
2 *615:X 0.000178211
3 *518:B *518:A 5.50049e-05
4 *80:98 *518:A 0.000171734
*RES
1 *615:X *518:A 49.9564 
*END

*D_NET *148 0.00230789
*CONN
*I *612:A I *D sky130_fd_sc_hd__dlygate4sd3_1
*I *639:A I *D sky130_fd_sc_hd__buf_2
*I *580:Q O *D sky130_fd_sc_hd__dfxtp_1
*CAP
1 *612:A 0.000110804
2 *639:A 0
3 *580:Q 0.00036831
4 *148:14 0.000674831
5 *148:8 0.00115394
*RES
1 *580:Q *148:8 42.9093 
2 *148:8 *148:14 27.4286 
3 *148:14 *639:A 23 
4 *148:8 *612:A 39.9057 
*END

*D_NET *149 0.00377195
*CONN
*I *640:A I *D sky130_fd_sc_hd__buf_2
*I *615:A I *D sky130_fd_sc_hd__dlygate4sd3_1
*I *581:Q O *D sky130_fd_sc_hd__dfxtp_1
*CAP
1 *640:A 0.00131235
2 *615:A 0
3 *581:Q 0.000156775
4 *149:12 0.00143101
5 *149:8 0.000275438
6 *80:98 *640:A 4.08664e-05
7 *80:98 *149:12 0.000270682
8 *80:115 *640:A 9.41704e-05
9 *130:8 *640:A 0.000190662
10 *132:29 *149:8 0
11 *137:93 *149:8 0
*RES
1 *581:Q *149:8 40.2579 
2 *149:8 *149:12 18.0036 
3 *149:12 *615:A 23 
4 *149:12 *640:A 47.9193 
*END

*D_NET *150 0.00199745
*CONN
*I *641:A I *D sky130_fd_sc_hd__buf_2
*I *613:A I *D sky130_fd_sc_hd__dlygate4sd3_1
*I *582:Q O *D sky130_fd_sc_hd__dfxtp_1
*CAP
1 *641:A 0.000773525
2 *613:A 0
3 *582:Q 0.000131486
4 *150:12 0.00086724
5 *150:8 0.000225201
6 *130:21 *150:8 0
*RES
1 *582:Q *150:8 40.2579 
2 *150:8 *150:12 16.5743 
3 *150:12 *613:A 23 
4 *150:12 *641:A 37.4379 
*END

*D_NET *151 0.00183656
*CONN
*I *642:A I *D sky130_fd_sc_hd__buf_2
*I *614:A I *D sky130_fd_sc_hd__dlygate4sd3_1
*I *583:Q O *D sky130_fd_sc_hd__dfxtp_1
*CAP
1 *642:A 0.000367323
2 *614:A 0
3 *583:Q 0.000162825
4 *151:8 0.000530148
5 *128:25 *642:A 0.000547666
6 *128:25 *151:8 0.000205566
7 *146:10 *151:8 2.30292e-05
*RES
1 *583:Q *151:8 27.8057 
2 *151:8 *614:A 23 
3 *151:8 *642:A 33.6264 
*END

*D_NET *152 0.00327407
*CONN
*I *611:A I *D sky130_fd_sc_hd__dlygate4sd3_1
*I *643:A I *D sky130_fd_sc_hd__buf_2
*I *584:Q O *D sky130_fd_sc_hd__dfxtp_1
*CAP
1 *611:A 0.000257707
2 *643:A 0.000223932
3 *584:Q 0.000423722
4 *152:10 0.000905361
5 *27:8 *611:A 3.53115e-05
6 *110:31 *643:A 0.000704525
7 *110:31 *152:10 0.000576699
8 *126:45 *611:A 5.67058e-05
9 *127:10 *611:A 0
10 *127:10 *643:A 9.01041e-05
*RES
1 *584:Q *152:10 45.1879 
2 *152:10 *643:A 45.7679 
3 *152:10 *611:A 43.0129 
*END
