*SPEF "ieee 1481-1999"
*DESIGN "controller"
*DATE "17:04:30 Tuesday December 16, 2025"
*VENDOR "The OpenROAD Project"
*PROGRAM "OpenROAD"
*VERSION "edf00dff99f6c40d67a30c0e22a8191c5d2ed9d6"
*DESIGN_FLOW "NAME_SCOPE LOCAL" "PIN_CAP NONE"
*DIVIDER /
*DELIMITER :
*BUS_DELIMITER []
*T_UNIT 1 NS
*C_UNIT 1 PF
*R_UNIT 1 OHM
*L_UNIT 1 HENRY

*NAME_MAP
*3 adc_out[0]
*4 adc_out[1]
*5 adc_out[2]
*6 adc_out[3]
*7 adc_out[4]
*8 adc_out[5]
*9 adc_out[6]
*10 adc_out[7]
*11 clk
*12 comp
*13 comparator_clk
*14 dac_in[0]
*15 dac_in[1]
*16 dac_in[2]
*17 dac_in[3]
*18 dac_in[4]
*19 dac_in[5]
*20 dac_in[6]
*21 dac_in[7]
*22 dac_in_n[0]
*23 dac_in_n[1]
*24 dac_in_n[2]
*25 dac_in_n[3]
*26 dac_in_n[4]
*27 dac_in_n[5]
*28 dac_in_n[6]
*29 dac_in_n[7]
*30 rst_n
*31 _001_
*32 _002_
*33 _003_
*34 _004_
*35 _005_
*36 _006_
*37 _007_
*38 _008_
*39 _009_
*40 _010_
*41 _011_
*42 _012_
*43 _013_
*44 _014_
*45 _015_
*46 _016_
*47 _017_
*48 _018_
*49 _019_
*50 _020_
*51 _021_
*52 _022_
*53 _023_
*54 _024_
*55 _025_
*56 _026_
*57 _027_
*58 _028_
*59 _029_
*60 _030_
*61 _031_
*62 _032_
*63 _033_
*64 _034_
*65 _035_
*66 _036_
*67 _037_
*68 _038_
*69 _039_
*70 _040_
*71 _041_
*72 _042_
*73 _043_
*74 _044_
*75 _045_
*76 _046_
*77 _047_
*78 _048_
*79 _049_
*80 _050_
*81 _051_
*82 _052_
*83 _053_
*84 _054_
*85 _055_
*86 _056_
*87 _057_
*88 _058_
*89 _059_
*90 _060_
*91 _061_
*92 _062_
*93 _063_
*94 _064_
*95 _065_
*96 _066_
*97 _067_
*98 _068_
*99 _069_
*100 _070_
*101 _071_
*102 clknet_0_clk
*103 clknet_1_0__leaf_clk
*104 clknet_1_1__leaf_clk
*105 count\[0\]
*106 count\[1\]
*107 count\[2\]
*108 count\[3\]
*109 net1
*110 net10
*111 net11
*112 net12
*113 net13
*114 net14
*115 net15
*116 net16
*117 net17
*118 net18
*119 net19
*120 net2
*121 net20
*122 net21
*123 net22
*124 net23
*125 net24
*126 net25
*127 net26
*128 net27
*129 net28
*130 net29
*131 net3
*132 net30
*133 net31
*134 net32
*135 net33
*136 net34
*137 net35
*138 net36
*139 net37
*140 net38
*141 net39
*142 net4
*143 net40
*144 net41
*145 net42
*146 net43
*147 net44
*148 net5
*149 net6
*150 net7
*151 net8
*152 net9
*153 FILLER_0_109
*154 FILLER_0_113
*155 FILLER_0_125
*156 FILLER_0_137
*157 FILLER_0_141
*158 FILLER_0_15
*159 FILLER_0_153
*160 FILLER_0_165
*161 FILLER_0_169
*162 FILLER_0_181
*163 FILLER_0_192
*164 FILLER_0_197
*165 FILLER_0_209
*166 FILLER_0_213
*167 FILLER_0_219
*168 FILLER_0_223
*169 FILLER_0_225
*170 FILLER_0_237
*171 FILLER_0_249
*172 FILLER_0_253
*173 FILLER_0_265
*174 FILLER_0_27
*175 FILLER_0_273
*176 FILLER_0_281
*177 FILLER_0_29
*178 FILLER_0_3
*179 FILLER_0_41
*180 FILLER_0_53
*181 FILLER_0_57
*182 FILLER_0_69
*183 FILLER_0_81
*184 FILLER_0_85
*185 FILLER_0_97
*186 FILLER_1_104
*187 FILLER_1_129
*188 FILLER_1_148
*189 FILLER_1_15
*190 FILLER_1_160
*191 FILLER_1_169
*192 FILLER_1_181
*193 FILLER_1_199
*194 FILLER_1_207
*195 FILLER_1_225
*196 FILLER_1_233
*197 FILLER_1_251
*198 FILLER_1_263
*199 FILLER_1_27
*200 FILLER_1_275
*201 FILLER_1_279
*202 FILLER_1_281
*203 FILLER_1_3
*204 FILLER_1_39
*205 FILLER_1_51
*206 FILLER_1_55
*207 FILLER_1_57
*208 FILLER_1_63
*209 FILLER_1_71
*210 FILLER_1_92
*211 FILLER_2_100
*212 FILLER_2_120
*213 FILLER_2_15
*214 FILLER_2_155
*215 FILLER_2_163
*216 FILLER_2_191
*217 FILLER_2_195
*218 FILLER_2_197
*219 FILLER_2_227
*220 FILLER_2_243
*221 FILLER_2_251
*222 FILLER_2_261
*223 FILLER_2_27
*224 FILLER_2_273
*225 FILLER_2_285
*226 FILLER_2_29
*227 FILLER_2_3
*228 FILLER_2_41
*229 FILLER_2_53
*230 FILLER_2_76
*231 FILLER_2_82
*232 FILLER_2_90
*233 FILLER_2_96
*234 FILLER_3_109
*235 FILLER_3_113
*236 FILLER_3_131
*237 FILLER_3_15
*238 FILLER_3_151
*239 FILLER_3_157
*240 FILLER_3_163
*241 FILLER_3_167
*242 FILLER_3_169
*243 FILLER_3_175
*244 FILLER_3_187
*245 FILLER_3_199
*246 FILLER_3_223
*247 FILLER_3_233
*248 FILLER_3_245
*249 FILLER_3_257
*250 FILLER_3_269
*251 FILLER_3_27
*252 FILLER_3_277
*253 FILLER_3_281
*254 FILLER_3_3
*255 FILLER_3_39
*256 FILLER_3_51
*257 FILLER_3_55
*258 FILLER_3_57
*259 FILLER_3_73
*260 FILLER_3_85
*261 FILLER_3_97
*262 FILLER_4_103
*263 FILLER_4_124
*264 FILLER_4_136
*265 FILLER_4_145
*266 FILLER_4_15
*267 FILLER_4_155
*268 FILLER_4_164
*269 FILLER_4_172
*270 FILLER_4_178
*271 FILLER_4_190
*272 FILLER_4_197
*273 FILLER_4_209
*274 FILLER_4_221
*275 FILLER_4_233
*276 FILLER_4_253
*277 FILLER_4_265
*278 FILLER_4_27
*279 FILLER_4_277
*280 FILLER_4_285
*281 FILLER_4_29
*282 FILLER_4_3
*283 FILLER_4_41
*284 FILLER_4_53
*285 FILLER_4_65
*286 FILLER_4_77
*287 FILLER_4_83
*288 FILLER_4_91
*289 FILLER_5_103
*290 FILLER_5_107
*291 FILLER_5_111
*292 FILLER_5_113
*293 FILLER_5_117
*294 FILLER_5_143
*295 FILLER_5_147
*296 FILLER_5_169
*297 FILLER_5_175
*298 FILLER_5_18
*299 FILLER_5_221
*300 FILLER_5_225
*301 FILLER_5_231
*302 FILLER_5_245
*303 FILLER_5_255
*304 FILLER_5_267
*305 FILLER_5_279
*306 FILLER_5_281
*307 FILLER_5_30
*308 FILLER_5_38
*309 FILLER_5_57
*310 FILLER_5_6
*311 FILLER_5_66
*312 FILLER_5_81
*313 FILLER_5_99
*314 FILLER_6_116
*315 FILLER_6_128
*316 FILLER_6_15
*317 FILLER_6_152
*318 FILLER_6_160
*319 FILLER_6_172
*320 FILLER_6_184
*321 FILLER_6_197
*322 FILLER_6_220
*323 FILLER_6_232
*324 FILLER_6_238
*325 FILLER_6_244
*326 FILLER_6_253
*327 FILLER_6_265
*328 FILLER_6_27
*329 FILLER_6_277
*330 FILLER_6_285
*331 FILLER_6_29
*332 FILLER_6_3
*333 FILLER_6_41
*334 FILLER_6_53
*335 FILLER_6_65
*336 FILLER_6_73
*337 FILLER_7_102
*338 FILLER_7_110
*339 FILLER_7_113
*340 FILLER_7_120
*341 FILLER_7_126
*342 FILLER_7_134
*343 FILLER_7_15
*344 FILLER_7_155
*345 FILLER_7_169
*346 FILLER_7_183
*347 FILLER_7_195
*348 FILLER_7_202
*349 FILLER_7_206
*350 FILLER_7_221
*351 FILLER_7_225
*352 FILLER_7_263
*353 FILLER_7_27
*354 FILLER_7_275
*355 FILLER_7_279
*356 FILLER_7_281
*357 FILLER_7_3
*358 FILLER_7_39
*359 FILLER_7_57
*360 FILLER_7_69
*361 FILLER_7_77
*362 FILLER_8_114
*363 FILLER_8_122
*364 FILLER_8_145
*365 FILLER_8_15
*366 FILLER_8_153
*367 FILLER_8_157
*368 FILLER_8_165
*369 FILLER_8_191
*370 FILLER_8_195
*371 FILLER_8_197
*372 FILLER_8_226
*373 FILLER_8_232
*374 FILLER_8_253
*375 FILLER_8_264
*376 FILLER_8_27
*377 FILLER_8_276
*378 FILLER_8_29
*379 FILLER_8_3
*380 FILLER_8_41
*381 FILLER_8_69
*382 FILLER_8_81
*383 FILLER_8_85
*384 FILLER_8_97
*385 FILLER_9_10
*386 FILLER_9_102
*387 FILLER_9_110
*388 FILLER_9_113
*389 FILLER_9_121
*390 FILLER_9_133
*391 FILLER_9_141
*392 FILLER_9_153
*393 FILLER_9_159
*394 FILLER_9_167
*395 FILLER_9_169
*396 FILLER_9_173
*397 FILLER_9_178
*398 FILLER_9_190
*399 FILLER_9_201
*400 FILLER_9_209
*401 FILLER_9_216
*402 FILLER_9_225
*403 FILLER_9_248
*404 FILLER_9_26
*405 FILLER_9_265
*406 FILLER_9_273
*407 FILLER_9_281
*408 FILLER_9_29
*409 FILLER_9_45
*410 FILLER_9_53
*411 FILLER_9_57
*412 FILLER_9_64
*413 FILLER_9_76
*414 FILLER_9_83
*415 FILLER_9_85
*416 FILLER_9_97
*417 PHY_EDGE_ROW_0_Left_10
*418 PHY_EDGE_ROW_0_Right_0
*419 PHY_EDGE_ROW_1_Left_11
*420 PHY_EDGE_ROW_1_Right_1
*421 PHY_EDGE_ROW_2_Left_12
*422 PHY_EDGE_ROW_2_Right_2
*423 PHY_EDGE_ROW_3_Left_13
*424 PHY_EDGE_ROW_3_Right_3
*425 PHY_EDGE_ROW_4_Left_14
*426 PHY_EDGE_ROW_4_Right_4
*427 PHY_EDGE_ROW_5_Left_15
*428 PHY_EDGE_ROW_5_Right_5
*429 PHY_EDGE_ROW_6_Left_16
*430 PHY_EDGE_ROW_6_Right_6
*431 PHY_EDGE_ROW_7_Left_17
*432 PHY_EDGE_ROW_7_Right_7
*433 PHY_EDGE_ROW_8_Left_18
*434 PHY_EDGE_ROW_8_Right_8
*435 PHY_EDGE_ROW_9_Left_19
*436 PHY_EDGE_ROW_9_Right_9
*437 TAP_TAPCELL_ROW_0_20
*438 TAP_TAPCELL_ROW_0_21
*439 TAP_TAPCELL_ROW_0_22
*440 TAP_TAPCELL_ROW_0_23
*441 TAP_TAPCELL_ROW_0_24
*442 TAP_TAPCELL_ROW_0_25
*443 TAP_TAPCELL_ROW_0_26
*444 TAP_TAPCELL_ROW_0_27
*445 TAP_TAPCELL_ROW_0_28
*446 TAP_TAPCELL_ROW_0_29
*447 TAP_TAPCELL_ROW_1_30
*448 TAP_TAPCELL_ROW_1_31
*449 TAP_TAPCELL_ROW_1_32
*450 TAP_TAPCELL_ROW_1_33
*451 TAP_TAPCELL_ROW_1_34
*452 TAP_TAPCELL_ROW_2_35
*453 TAP_TAPCELL_ROW_2_36
*454 TAP_TAPCELL_ROW_2_37
*455 TAP_TAPCELL_ROW_2_38
*456 TAP_TAPCELL_ROW_2_39
*457 TAP_TAPCELL_ROW_3_40
*458 TAP_TAPCELL_ROW_3_41
*459 TAP_TAPCELL_ROW_3_42
*460 TAP_TAPCELL_ROW_3_43
*461 TAP_TAPCELL_ROW_3_44
*462 TAP_TAPCELL_ROW_4_45
*463 TAP_TAPCELL_ROW_4_46
*464 TAP_TAPCELL_ROW_4_47
*465 TAP_TAPCELL_ROW_4_48
*466 TAP_TAPCELL_ROW_4_49
*467 TAP_TAPCELL_ROW_5_50
*468 TAP_TAPCELL_ROW_5_51
*469 TAP_TAPCELL_ROW_5_52
*470 TAP_TAPCELL_ROW_5_53
*471 TAP_TAPCELL_ROW_5_54
*472 TAP_TAPCELL_ROW_6_55
*473 TAP_TAPCELL_ROW_6_56
*474 TAP_TAPCELL_ROW_6_57
*475 TAP_TAPCELL_ROW_6_58
*476 TAP_TAPCELL_ROW_6_59
*477 TAP_TAPCELL_ROW_7_60
*478 TAP_TAPCELL_ROW_7_61
*479 TAP_TAPCELL_ROW_7_62
*480 TAP_TAPCELL_ROW_7_63
*481 TAP_TAPCELL_ROW_7_64
*482 TAP_TAPCELL_ROW_8_65
*483 TAP_TAPCELL_ROW_8_66
*484 TAP_TAPCELL_ROW_8_67
*485 TAP_TAPCELL_ROW_8_68
*486 TAP_TAPCELL_ROW_8_69
*487 TAP_TAPCELL_ROW_9_70
*488 TAP_TAPCELL_ROW_9_71
*489 TAP_TAPCELL_ROW_9_72
*490 TAP_TAPCELL_ROW_9_73
*491 TAP_TAPCELL_ROW_9_74
*492 TAP_TAPCELL_ROW_9_75
*493 TAP_TAPCELL_ROW_9_76
*494 TAP_TAPCELL_ROW_9_77
*495 TAP_TAPCELL_ROW_9_78
*496 TAP_TAPCELL_ROW_9_79
*497 _072_
*498 _073_
*499 _074_
*500 _075_
*501 _076_
*502 _077_
*503 _078_
*504 _079_
*505 _080_
*506 _081_
*507 _082_
*508 _083__1
*509 _084_
*510 _085_
*511 _086_
*512 _087_
*513 _088_
*514 _089_
*515 _090_
*516 _091_
*517 _092_
*518 _093_
*519 _094_
*520 _095_
*521 _096_
*522 _097_
*523 _098_
*524 _099_
*525 _100_
*526 _101_
*527 _102_
*528 _103_
*529 _104_
*530 _105_
*531 _106_
*532 _107_
*533 _108_
*534 _109_
*535 _110_
*536 _111_
*537 _112_
*538 _113_
*539 _114_
*540 _115_
*541 _116_
*542 _117_
*543 _118_
*544 _119_
*545 _120_
*546 _121_
*547 _122_
*548 _123_
*549 _124_
*550 _125_
*551 _126_
*552 _127_
*553 _128_
*554 _129_
*555 _130_
*556 _131_
*557 _132_
*558 _133_
*559 _134_
*560 _135_
*561 _136_
*562 _137_
*563 _138_
*564 _139_
*565 _140_
*566 _141_
*567 _142_
*568 _143_
*569 _144_
*570 _145_
*571 _146_
*572 _147_
*573 _148_
*574 _149_
*575 _150_
*576 _151_
*577 _152_
*578 _153_
*579 _154_
*580 _155_
*581 _156_
*582 _157_
*583 _158_
*584 _159_
*585 _160_
*586 _161_
*587 _162_
*588 _163_
*589 _164_
*590 _165_
*591 _166_
*592 _167_
*593 _168_
*594 _169_
*595 _170_
*596 _171_
*597 _172_
*598 clkbuf_0_clk
*599 clkbuf_1_0__f_clk
*600 clkbuf_1_1__f_clk
*601 clkload0
*602 fanout28
*603 fanout31
*604 fanout32
*605 fanout33
*606 fanout34
*607 fanout35
*608 hold1
*609 hold2
*610 hold3
*611 hold4
*612 hold5
*613 hold6
*614 hold7
*615 hold8
*616 input1
*617 input2
*618 max_cap29
*619 output10
*620 output11
*621 output12
*622 output13
*623 output14
*624 output15
*625 output16
*626 output17
*627 output18
*628 output19
*629 output20
*630 output21
*631 output22
*632 output23
*633 output24
*634 output25
*635 output26
*636 output27
*637 output3
*638 output4
*639 output5
*640 output6
*641 output7
*642 output8
*643 output9
*644 wire30

*PORTS
adc_out[0] O
adc_out[1] O
adc_out[2] O
adc_out[3] O
adc_out[4] O
adc_out[5] O
adc_out[6] O
adc_out[7] O
clk I
comp I
comparator_clk O
dac_in[0] O
dac_in[1] O
dac_in[2] O
dac_in[3] O
dac_in[4] O
dac_in[5] O
dac_in[6] O
dac_in[7] O
dac_in_n[0] O
dac_in_n[1] O
dac_in_n[2] O
dac_in_n[3] O
dac_in_n[4] O
dac_in_n[5] O
dac_in_n[6] O
dac_in_n[7] O
rst_n I

*D_NET *3 0.00150748
*CONN
*P adc_out[0] O
*I *637:X O *D sky130_fd_sc_hd__buf_2
*CAP
1 adc_out[0] 0.000753739
2 *637:X 0.000753739
3 adc_out[0] adc_out[1] 0
*RES
1 *637:X adc_out[0] 11.771 
*END

*D_NET *4 0.00139718
*CONN
*P adc_out[1] O
*I *638:X O *D sky130_fd_sc_hd__buf_2
*CAP
1 adc_out[1] 0.000698591
2 *638:X 0.000698591
3 adc_out[1] adc_out[2] 0
4 adc_out[0] adc_out[1] 0
*RES
1 *638:X adc_out[1] 6.89277 
*END

*D_NET *5 0.00057884
*CONN
*P adc_out[2] O
*I *639:X O *D sky130_fd_sc_hd__buf_2
*CAP
1 adc_out[2] 0.00028942
2 *639:X 0.00028942
3 adc_out[2] adc_out[3] 0
4 adc_out[1] adc_out[2] 0
*RES
1 *639:X adc_out[2] 5.09883 
*END

*D_NET *6 0.000577876
*CONN
*P adc_out[3] O
*I *640:X O *D sky130_fd_sc_hd__buf_2
*CAP
1 adc_out[3] 0.000288938
2 *640:X 0.000288938
3 adc_out[3] adc_out[4] 0
4 adc_out[2] adc_out[3] 0
*RES
1 *640:X adc_out[3] 5.09883 
*END

*D_NET *7 0.00058253
*CONN
*P adc_out[4] O
*I *641:X O *D sky130_fd_sc_hd__buf_2
*CAP
1 adc_out[4] 0.000291265
2 *641:X 0.000291265
3 adc_out[4] adc_out[5] 0
4 adc_out[3] adc_out[4] 0
*RES
1 *641:X adc_out[4] 5.09883 
*END

*D_NET *8 0.000586366
*CONN
*P adc_out[5] O
*I *642:X O *D sky130_fd_sc_hd__buf_2
*CAP
1 adc_out[5] 0.000293183
2 *642:X 0.000293183
3 adc_out[5] adc_out[6] 0
4 adc_out[5] *620:A 0
5 adc_out[4] adc_out[5] 0
*RES
1 *642:X adc_out[5] 5.09883 
*END

*D_NET *9 0.000890799
*CONN
*P adc_out[6] O
*I *643:X O *D sky130_fd_sc_hd__buf_2
*CAP
1 adc_out[6] 0.000358711
2 *643:X 0.000358711
3 adc_out[6] adc_out[7] 0.00014212
4 adc_out[6] *620:A 0
5 adc_out[6] *636:A 3.12569e-05
6 adc_out[5] adc_out[6] 0
*RES
1 *643:X adc_out[6] 5.8419 
*END

*D_NET *10 0.00146708
*CONN
*P adc_out[7] O
*I *619:X O *D sky130_fd_sc_hd__buf_2
*CAP
1 adc_out[7] 0.000580177
2 *619:X 0.000580177
3 adc_out[7] comparator_clk 0
4 adc_out[7] dac_in_n[7] 6.24871e-05
5 adc_out[7] *636:A 0.000102123
6 adc_out[6] adc_out[7] 0.00014212
*RES
1 *619:X adc_out[7] 9.79563 
*END

*D_NET *11 0.00866881
*CONN
*P clk I
*I *598:A I *D sky130_fd_sc_hd__clkbuf_16
*CAP
1 clk 0.00380032
2 *598:A 0.00380032
3 *598:A *531:C 0.000301899
4 *598:A *538:A_N 0.000148424
5 *598:A *605:A 0
6 *598:A *607:A 0
7 *598:A *105:8 0.00039625
8 *598:A *105:17 2.05571e-05
9 *598:A *136:12 0.000201033
10 *598:A *137:31 0
*RES
1 clk *598:A 26.5335 
*END

*D_NET *12 0.000697413
*CONN
*P comp I
*I *616:A I *D sky130_fd_sc_hd__buf_1
*CAP
1 comp 0.000348706
2 *616:A 0.000348706
*RES
1 comp *616:A 7.95697 
*END

*D_NET *13 0.00179594
*CONN
*P comparator_clk O
*I *620:X O *D sky130_fd_sc_hd__buf_2
*CAP
1 comparator_clk 0.000897972
2 *620:X 0.000897972
3 comparator_clk dac_in_n[6] 0
4 comparator_clk dac_in_n[7] 0
5 adc_out[7] comparator_clk 0
*RES
1 *620:X comparator_clk 10.635 
*END

*D_NET *14 0.00128517
*CONN
*P dac_in[0] O
*I *621:X O *D sky130_fd_sc_hd__buf_2
*CAP
1 dac_in[0] 0.000525579
2 *621:X 0.000525579
3 dac_in[0] *617:A 0.000234012
4 dac_in[0] *120:10 0
*RES
1 *621:X dac_in[0] 13.53 
*END

*D_NET *15 0.00103374
*CONN
*P dac_in[1] O
*I *622:X O *D sky130_fd_sc_hd__buf_2
*CAP
1 dac_in[1] 0.000516872
2 *622:X 0.000516872
*RES
1 *622:X dac_in[1] 12.735 
*END

*D_NET *16 0.00124801
*CONN
*P dac_in[2] O
*I *623:X O *D sky130_fd_sc_hd__buf_2
*CAP
1 dac_in[2] 0.000595748
2 *623:X 0.000595748
3 dac_in[2] *621:A 4.82863e-05
4 dac_in[2] *113:31 8.2265e-06
*RES
1 *623:X dac_in[2] 13.53 
*END

*D_NET *17 0.00103374
*CONN
*P dac_in[3] O
*I *624:X O *D sky130_fd_sc_hd__buf_2
*CAP
1 dac_in[3] 0.000516872
2 *624:X 0.000516872
*RES
1 *624:X dac_in[3] 12.735 
*END

*D_NET *18 0.00103374
*CONN
*P dac_in[4] O
*I *625:X O *D sky130_fd_sc_hd__buf_2
*CAP
1 dac_in[4] 0.000516872
2 *625:X 0.000516872
*RES
1 *625:X dac_in[4] 12.735 
*END

*D_NET *19 0.00103374
*CONN
*P dac_in[5] O
*I *626:X O *D sky130_fd_sc_hd__buf_2
*CAP
1 dac_in[5] 0.000516872
2 *626:X 0.000516872
*RES
1 *626:X dac_in[5] 12.735 
*END

*D_NET *20 0.00103374
*CONN
*P dac_in[6] O
*I *627:X O *D sky130_fd_sc_hd__buf_2
*CAP
1 dac_in[6] 0.000516872
2 *627:X 0.000516872
*RES
1 *627:X dac_in[6] 12.735 
*END

*D_NET *21 0.00103374
*CONN
*P dac_in[7] O
*I *628:X O *D sky130_fd_sc_hd__buf_2
*CAP
1 dac_in[7] 0.000516872
2 *628:X 0.000516872
3 dac_in[7] *120:16 0
*RES
1 *628:X dac_in[7] 12.735 
*END

*D_NET *22 0.0010626
*CONN
*P dac_in_n[0] O
*I *629:X O *D sky130_fd_sc_hd__buf_2
*CAP
1 dac_in_n[0] 0.000531302
2 *629:X 0.000531302
3 dac_in_n[0] *541:B1 0
*RES
1 *629:X dac_in_n[0] 13.08 
*END

*D_NET *23 0.00106563
*CONN
*P dac_in_n[1] O
*I *630:X O *D sky130_fd_sc_hd__buf_2
*CAP
1 dac_in_n[1] 0.000530594
2 *630:X 0.000530594
3 dac_in_n[1] *630:A 4.43871e-06
*RES
1 *630:X dac_in_n[1] 13.08 
*END

*D_NET *24 0.0013636
*CONN
*P dac_in_n[2] O
*I *631:X O *D sky130_fd_sc_hd__buf_2
*CAP
1 dac_in_n[2] 0.000649062
2 *631:X 0.000649062
3 dac_in_n[2] *118:34 6.54766e-05
*RES
1 *631:X dac_in_n[2] 14.565 
*END

*D_NET *25 0.00115244
*CONN
*P dac_in_n[3] O
*I *632:X O *D sky130_fd_sc_hd__buf_2
*CAP
1 dac_in_n[3] 0.000558937
2 *632:X 0.000558937
3 dac_in_n[3] *118:34 3.45679e-05
*RES
1 *632:X dac_in_n[3] 13.185 
*END

*D_NET *26 0.0010626
*CONN
*P dac_in_n[4] O
*I *633:X O *D sky130_fd_sc_hd__buf_2
*CAP
1 dac_in_n[4] 0.000531302
2 *633:X 0.000531302
*RES
1 *633:X dac_in_n[4] 13.08 
*END

*D_NET *27 0.00181871
*CONN
*P dac_in_n[5] O
*I *634:X O *D sky130_fd_sc_hd__buf_2
*CAP
1 dac_in_n[5] 0.0008253
2 *634:X 0.0008253
3 dac_in_n[5] *500:A 7.81829e-05
4 dac_in_n[5] *524:A 7.00889e-06
5 dac_in_n[5] *611:A 3.23663e-05
6 dac_in_n[5] *634:A 5.05521e-05
*RES
1 *634:X dac_in_n[5] 16.98 
*END

*D_NET *28 0.0010626
*CONN
*P dac_in_n[6] O
*I *635:X O *D sky130_fd_sc_hd__buf_2
*CAP
1 dac_in_n[6] 0.000531302
2 *635:X 0.000531302
3 comparator_clk dac_in_n[6] 0
*RES
1 *635:X dac_in_n[6] 13.08 
*END

*D_NET *29 0.00103075
*CONN
*P dac_in_n[7] O
*I *636:X O *D sky130_fd_sc_hd__buf_2
*CAP
1 dac_in_n[7] 0.00048413
2 *636:X 0.00048413
3 adc_out[7] dac_in_n[7] 6.24871e-05
4 comparator_clk dac_in_n[7] 0
*RES
1 *636:X dac_in_n[7] 12.39 
*END

*D_NET *30 0.00125511
*CONN
*P rst_n I
*I *617:A I *D sky130_fd_sc_hd__buf_1
*CAP
1 rst_n 0.000490761
2 *617:A 0.000490761
3 *617:A *621:A 3.95724e-05
4 dac_in[0] *617:A 0.000234012
*RES
1 rst_n *617:A 11.1635 
*END

*D_NET *31 0.000340968
*CONN
*I *577:D I *D sky130_fd_sc_hd__dfxtp_1
*I *509:X O *D sky130_fd_sc_hd__and2b_1
*CAP
1 *577:D 9.66199e-05
2 *509:X 9.66199e-05
3 *577:D *509:A_N 0.000147728
*RES
1 *509:X *577:D 4.92875 
*END

*D_NET *32 0.000481305
*CONN
*I *578:D I *D sky130_fd_sc_hd__dfxtp_1
*I *513:X O *D sky130_fd_sc_hd__o211a_1
*CAP
1 *578:D 0.000158046
2 *513:X 0.000158046
3 *578:D *513:B1 4.82919e-05
4 *578:D *581:CLK 3.86529e-05
5 *578:D *104:51 7.82691e-05
*RES
1 *513:X *578:D 9.75 
*END

*D_NET *33 0.000365921
*CONN
*I *579:D I *D sky130_fd_sc_hd__dfxtp_1
*I *515:X O *D sky130_fd_sc_hd__o211a_1
*CAP
1 *579:D 0.000107666
2 *515:X 0.000107666
3 *579:D *515:B1 0.000117832
4 *579:D *80:49 1.83847e-05
5 *579:D *104:42 1.43717e-05
6 *579:D *132:12 0
*RES
1 *515:X *579:D 9.16875 
*END

*D_NET *34 0.000321289
*CONN
*I *580:D I *D sky130_fd_sc_hd__dfxtp_1
*I *517:X O *D sky130_fd_sc_hd__o211a_1
*CAP
1 *580:D 0.000125405
2 *517:X 0.000125405
3 *580:D *517:B1 1.83756e-05
4 *580:D *104:79 5.21046e-05
*RES
1 *517:X *580:D 9.16875 
*END

*D_NET *35 0.000238665
*CONN
*I *581:D I *D sky130_fd_sc_hd__dfxtp_1
*I *519:X O *D sky130_fd_sc_hd__o211a_1
*CAP
1 *581:D 0.000115754
2 *519:X 0.000115754
3 *581:D *513:A1 0
4 *581:D *519:A1 2.97004e-06
5 *581:D *581:CLK 4.18603e-06
6 *581:D *80:81 0
7 *581:D *132:29 0
*RES
1 *519:X *581:D 8.97375 
*END

*D_NET *36 0.000237271
*CONN
*I *582:D I *D sky130_fd_sc_hd__dfxtp_1
*I *521:X O *D sky130_fd_sc_hd__o211a_1
*CAP
1 *582:D 8.69002e-05
2 *521:X 8.69002e-05
3 *582:D *104:79 4.18603e-06
4 *582:D *104:88 5.92849e-05
5 *582:D *130:21 0
*RES
1 *521:X *582:D 8.97375 
*END

*D_NET *37 0.00027013
*CONN
*I *583:D I *D sky130_fd_sc_hd__dfxtp_1
*I *523:X O *D sky130_fd_sc_hd__o211a_1
*CAP
1 *583:D 3.91082e-05
2 *523:X 3.91082e-05
3 *583:D *522:A 9.90763e-06
4 *583:D *583:CLK 3.00381e-05
5 *583:D *636:A 0.000151967
*RES
1 *523:X *583:D 4.56875 
*END

*D_NET *38 0.000498795
*CONN
*I *584:D I *D sky130_fd_sc_hd__dfxtp_1
*I *525:X O *D sky130_fd_sc_hd__o211a_1
*CAP
1 *584:D 0.000113436
2 *525:X 0.000113436
3 *584:D *524:B 0.000141606
4 *584:D *525:A2 0
5 *584:D *619:A 0.000130317
*RES
1 *525:X *584:D 10.0087 
*END

*D_NET *39 0.000366268
*CONN
*I *610:A I *D sky130_fd_sc_hd__dlygate4sd3_1
*I *527:X O *D sky130_fd_sc_hd__o211a_1
*CAP
1 *610:A 0.000135821
2 *527:X 0.000135821
3 *610:A *527:A2 0
4 *610:A *116:10 4.40812e-05
5 *610:A *117:22 5.05437e-05
*RES
1 *527:X *610:A 9.375 
*END

*D_NET *40 0.000525298
*CONN
*I *586:D I *D sky130_fd_sc_hd__dfxtp_1
*I *540:X O *D sky130_fd_sc_hd__o21a_1
*CAP
1 *586:D 6.05315e-05
2 *540:X 6.05315e-05
3 *586:D *109:8 0.00030262
4 *586:D *112:31 0.000101614
*RES
1 *540:X *586:D 5.94875 
*END

*D_NET *41 0.00129231
*CONN
*I *587:D I *D sky130_fd_sc_hd__dfxtp_1
*I *545:Y O *D sky130_fd_sc_hd__a31oi_1
*CAP
1 *587:D 0.000185651
2 *545:Y 0.000185651
3 *587:D *515:A1 0
4 *587:D *644:A 0.00012541
5 *587:D *80:15 0.000275542
6 *587:D *80:40 0.000281864
7 *587:D *90:22 0.000141592
8 *587:D *113:8 9.66021e-05
9 *587:D *113:29 0
*RES
1 *545:Y *587:D 13.8038 
*END

*D_NET *42 0.00178743
*CONN
*I *588:D I *D sky130_fd_sc_hd__dfxtp_1
*I *550:X O *D sky130_fd_sc_hd__o31a_1
*CAP
1 *588:D 0.000668798
2 *550:X 0.000668798
3 *588:D *549:A_N 0.000160658
4 *588:D *550:A2 0
5 *588:D *107:60 0
6 *588:D *109:24 8.53113e-06
7 *588:D *114:37 0.000280642
*RES
1 *550:X *588:D 18.7087 
*END

*D_NET *43 0.00545529
*CONN
*I *589:D I *D sky130_fd_sc_hd__dfxtp_1
*I *554:X O *D sky130_fd_sc_hd__o21a_1
*CAP
1 *589:D 0.00167303
2 *554:X 0.00167303
3 *589:D *568:B1 0.000103215
4 *589:D *592:D 9.03376e-05
5 *589:D *593:CLK 2.16917e-05
6 *589:D *593:D 1.43717e-05
7 *589:D *60:88 0
8 *589:D *103:51 0.000677921
9 *589:D *103:53 0.00108802
10 *589:D *103:59 0.000113663
*RES
1 *554:X *589:D 34.2938 
*END

*D_NET *44 0.00205201
*CONN
*I *590:D I *D sky130_fd_sc_hd__dfxtp_1
*I *558:Y O *D sky130_fd_sc_hd__a31oi_1
*CAP
1 *590:D 0.00070292
2 *558:Y 0.00070292
3 *590:D *517:A1 0.00030095
4 *590:D *600:A 0.00023468
5 *590:D *104:10 8.8861e-05
6 *590:D *104:110 2.16833e-05
*RES
1 *558:Y *590:D 13.6587 
*END

*D_NET *45 0.00108162
*CONN
*I *591:D I *D sky130_fd_sc_hd__dfxtp_1
*I *562:Y O *D sky130_fd_sc_hd__a31oi_1
*CAP
1 *591:D 0.000229392
2 *562:Y 0.000229392
3 *591:D *499:A 0.000277223
4 *591:D *527:A1 0.000149404
5 *591:D *541:A2 9.50342e-06
6 *591:D *551:B1 8.53113e-06
7 *591:D *567:B1 0
8 *591:D *591:CLK 0.0001111
9 *591:D *113:29 4.65643e-05
10 *591:D *119:23 2.0514e-05
*RES
1 *562:Y *591:D 12.4537 
*END

*D_NET *46 0.000367747
*CONN
*I *592:D I *D sky130_fd_sc_hd__dfxtp_1
*I *566:X O *D sky130_fd_sc_hd__o31a_1
*CAP
1 *592:D 9.35358e-05
2 *566:X 9.35358e-05
3 *592:D *563:B1 0
4 *592:D *103:51 9.03376e-05
5 *589:D *592:D 9.03376e-05
*RES
1 *566:X *592:D 9.15375 
*END

*D_NET *47 0.000190619
*CONN
*I *593:D I *D sky130_fd_sc_hd__dfxtp_1
*I *568:X O *D sky130_fd_sc_hd__a211o_1
*CAP
1 *593:D 8.81239e-05
2 *568:X 8.81239e-05
3 *593:D *568:B1 0
4 *589:D *593:D 1.43717e-05
*RES
1 *568:X *593:D 8.46375 
*END

*D_NET *48 0.000331521
*CONN
*I *594:D I *D sky130_fd_sc_hd__dfxtp_1
*I *570:X O *D sky130_fd_sc_hd__and3_1
*CAP
1 *594:D 6.84312e-05
2 *570:X 6.84312e-05
3 *594:D *568:C1 9.47454e-05
4 *594:D *605:A 7.36892e-05
5 *594:D *90:22 2.62239e-05
*RES
1 *570:X *594:D 9.00375 
*END

*D_NET *49 0.000361732
*CONN
*I *595:D I *D sky130_fd_sc_hd__dfxtp_1
*I *572:X O *D sky130_fd_sc_hd__and3_1
*CAP
1 *595:D 0.000132936
2 *572:X 0.000132936
3 *595:D *576:B1 6.50844e-06
4 *595:D *595:CLK 1.43717e-05
5 *595:D *604:A 2.66935e-05
6 *595:D *89:16 4.82863e-05
7 *595:D *103:16 0
*RES
1 *572:X *595:D 9.16875 
*END

*D_NET *50 0.000256603
*CONN
*I *596:D I *D sky130_fd_sc_hd__dfxtp_2
*I *574:X O *D sky130_fd_sc_hd__and3_1
*CAP
1 *596:D 0.000123338
2 *574:X 0.000123338
3 *596:D *534:C 0
4 *596:D *576:A1 0
5 *596:D *576:B1 9.92749e-06
6 *596:D *107:10 0
*RES
1 *574:X *596:D 9.01875 
*END

*D_NET *51 0.000659616
*CONN
*I *597:D I *D sky130_fd_sc_hd__dfxtp_1
*I *576:Y O *D sky130_fd_sc_hd__a21oi_1
*CAP
1 *597:D 0.000329808
2 *576:Y 0.000329808
3 *597:D *575:A 0
4 *597:D *596:CLK 0
*RES
1 *576:Y *597:D 11.5538 
*END

*D_NET *52 0.00167674
*CONN
*I *565:B1 I *D sky130_fd_sc_hd__o211a_1
*I *549:C I *D sky130_fd_sc_hd__and4bb_1
*I *542:X O *D sky130_fd_sc_hd__and4bb_1
*CAP
1 *565:B1 9.86423e-05
2 *549:C 0.000152523
3 *542:X 0
4 *52:4 0.000251165
5 *549:C *498:A 0.000233004
6 *549:C *542:A_N 8.49205e-05
7 *549:C *542:D 4.82863e-05
8 *549:C *548:A 5.41715e-05
9 *549:C *115:36 0.000369484
10 *549:C *129:82 4.66108e-05
11 *565:B1 *498:A 8.49205e-05
12 *565:B1 *547:C_N 2.37321e-05
13 *565:B1 *565:A1 9.52234e-05
14 *565:B1 *114:37 5.83373e-05
15 *565:B1 *129:82 7.57202e-05
*RES
1 *542:X *52:4 1.6 
2 *52:4 *549:C 6.535 
3 *52:4 *565:B1 8.54 
*END

*D_NET *53 0.00138539
*CONN
*I *545:A2 I *D sky130_fd_sc_hd__a31oi_1
*I *543:X O *D sky130_fd_sc_hd__or4_1
*CAP
1 *545:A2 0.000362977
2 *543:X 0.000362977
3 *545:A2 *510:A 4.80285e-05
4 *545:A2 *510:C 4.99619e-05
5 *545:A2 *530:B 2.45351e-05
6 *545:A2 *545:A3 3.00381e-05
7 *545:A2 *644:A 0.000171072
8 *545:A2 *135:16 4.35348e-05
9 *545:A2 *137:31 0.000292266
*RES
1 *543:X *545:A2 10.82 
*END

*D_NET *54 0.000302506
*CONN
*I *545:A3 I *D sky130_fd_sc_hd__a31oi_1
*I *544:Y O *D sky130_fd_sc_hd__nand3_1
*CAP
1 *545:A3 5.76636e-05
2 *544:Y 5.76636e-05
3 *545:A3 *506:A 6.47594e-05
4 *545:A3 *545:A1 4.40899e-05
5 *545:A3 *644:A 4.82919e-05
6 *545:A2 *545:A3 3.00381e-05
*RES
1 *544:Y *545:A3 9.03 
*END

*D_NET *55 0.00112752
*CONN
*I *550:A1 I *D sky130_fd_sc_hd__o31a_1
*I *546:X O *D sky130_fd_sc_hd__o41a_1
*CAP
1 *550:A1 0.000160345
2 *546:X 0.000160345
3 *550:A1 *537:A_N 2.75229e-05
4 *550:A1 *537:B 1.34503e-05
5 *550:A1 *540:A2 0.000560961
6 *550:A1 *540:B1 1.33293e-05
7 *550:A1 *550:A2 4.82863e-05
8 *550:A1 *550:A3 6.98113e-05
9 *550:A1 *98:10 4.80285e-05
10 *550:A1 *134:43 2.54431e-05
*RES
1 *546:X *550:A1 8.495 
*END

*D_NET *56 0.00556517
*CONN
*I *548:B I *D sky130_fd_sc_hd__and2_1
*I *551:A2 I *D sky130_fd_sc_hd__a21oi_1
*I *553:A3 I *D sky130_fd_sc_hd__a32o_1
*I *567:A1 I *D sky130_fd_sc_hd__a21oi_1
*I *564:A I *D sky130_fd_sc_hd__and2_1
*I *547:Y O *D sky130_fd_sc_hd__nor3b_2
*CAP
1 *548:B 0
2 *551:A2 8.87919e-05
3 *553:A3 0
4 *567:A1 4.14837e-05
5 *564:A 0
6 *547:Y 0.000138578
7 *56:40 0.00013775
8 *56:25 0.000490127
9 *56:14 0.00105489
10 *56:8 0.000793783
11 *551:A2 *551:A1 0.00019637
12 *551:A2 *551:B1 4.00541e-06
13 *551:A2 *553:B1 2.09749e-05
14 *551:A2 *553:B2 3.00381e-05
15 *551:A2 *554:A1 1.80164e-05
16 *551:A2 *78:67 4.39253e-05
17 *567:A1 *554:B1 7.79767e-06
18 *567:A1 *60:88 9.57611e-05
19 *567:A1 *120:16 5.23093e-05
20 *56:8 *107:60 0.0001249
21 *56:14 *547:A 2.16833e-05
22 *56:14 *554:B1 4.08514e-05
23 *56:14 *564:B 2.75229e-05
24 *56:14 *565:A2 0.000421068
25 *56:14 *565:C1 6.93182e-05
26 *56:14 *566:A2 2.7441e-05
27 *56:14 *566:A3 0.000236355
28 *56:14 *566:B1 9.2741e-05
29 *56:14 *568:A2 3.72413e-05
30 *56:14 *107:60 4.16353e-05
31 *56:14 *114:37 0.000502066
32 *56:25 *554:A1 1.16578e-05
33 *56:25 *554:A2 1.34594e-05
34 *56:25 *554:B1 0.000231605
35 *56:25 *568:A2 0.000338673
36 *56:25 *78:67 0
37 *56:40 *554:A1 0.000112349
*RES
1 *547:Y *56:8 3.7 
2 *56:8 *56:14 14.19 
3 *56:14 *564:A 1.6 
4 *56:14 *56:25 8.505 
5 *56:25 *567:A1 7.085 
6 *56:25 *56:40 1.14 
7 *56:40 *553:A3 1.6 
8 *56:40 *551:A2 4.495 
9 *56:8 *548:B 1.6 
*END

*D_NET *57 0.000665819
*CONN
*I *550:A2 I *D sky130_fd_sc_hd__o31a_1
*I *548:X O *D sky130_fd_sc_hd__and2_1
*CAP
1 *550:A2 0.000268759
2 *548:X 0.000268759
3 *550:A2 *540:B1 1.61831e-05
4 *550:A2 *550:A3 7.00889e-06
5 *550:A2 *550:B1 8.53113e-06
6 *550:A2 *107:27 0
7 *550:A2 *107:60 0
8 *550:A2 *109:24 0
9 *550:A2 *114:37 4.82919e-05
10 *550:A1 *550:A2 4.82863e-05
11 *588:D *550:A2 0
*RES
1 *548:X *550:A2 11.52 
*END

*D_NET *58 0.000750126
*CONN
*I *550:A3 I *D sky130_fd_sc_hd__o31a_1
*I *549:X O *D sky130_fd_sc_hd__and4bb_1
*CAP
1 *550:A3 0.000149117
2 *549:X 0.000149117
3 *550:A3 *540:B1 4.82863e-05
4 *550:A3 *542:A_N 0.000159964
5 *550:A3 *107:27 0.00015829
6 *550:A3 *107:60 8.53113e-06
7 *550:A1 *550:A3 6.98113e-05
8 *550:A2 *550:A3 7.00889e-06
*RES
1 *549:X *550:A3 10.92 
*END

*D_NET *59 0.00107173
*CONN
*I *554:A1 I *D sky130_fd_sc_hd__o21a_1
*I *551:Y O *D sky130_fd_sc_hd__a21oi_1
*CAP
1 *554:A1 0.000302866
2 *551:Y 0.000302866
3 *554:A1 *554:A2 3.00381e-05
4 *554:A1 *78:67 0.000293936
5 *551:A2 *554:A1 1.80164e-05
6 *56:25 *554:A1 1.16578e-05
7 *56:40 *554:A1 0.000112349
*RES
1 *551:Y *554:A1 8.165 
*END

*D_NET *60 0.0096225
*CONN
*I *553:B1 I *D sky130_fd_sc_hd__a32o_1
*I *567:A2 I *D sky130_fd_sc_hd__a21oi_1
*I *557:A2 I *D sky130_fd_sc_hd__a21o_1
*I *559:A2 I *D sky130_fd_sc_hd__a21o_1
*I *561:C I *D sky130_fd_sc_hd__nand3_1
*I *556:B I *D sky130_fd_sc_hd__nand2_1
*I *564:B I *D sky130_fd_sc_hd__and2_1
*I *555:C_N I *D sky130_fd_sc_hd__or3b_1
*I *552:Y O *D sky130_fd_sc_hd__nor2_2
*CAP
1 *553:B1 0.000215477
2 *567:A2 0
3 *557:A2 6.04705e-06
4 *559:A2 0
5 *561:C 0
6 *556:B 0.000135056
7 *564:B 0.000288746
8 *555:C_N 0.00019233
9 *552:Y 0
10 *60:88 0.000496302
11 *60:70 0.000191252
12 *60:51 0.000268213
13 *60:36 0.0007948
14 *60:6 0.000952668
15 *60:4 0.00132915
16 *553:B1 *506:A 0
17 *553:B1 *551:A1 1.45569e-05
18 *553:B1 *567:B1 0.000161529
19 *553:B1 *568:B1 9.45067e-05
20 *553:B1 *78:59 1.88602e-05
21 *553:B1 *78:67 1.35171e-05
22 *553:B1 *119:23 0.000104005
23 *553:B1 *120:16 0
24 *555:C_N *89:76 0.000159964
25 *555:C_N *129:80 0
26 *555:C_N *133:74 0.000113247
27 *556:B *558:A2 5.02217e-05
28 *556:B *602:A 4.60584e-05
29 *556:B *99:21 0.000163199
30 *556:B *99:27 0
31 *556:B *113:29 5.42473e-05
32 *556:B *114:55 0.000221129
33 *557:A2 *557:A1 4.99619e-05
34 *557:A2 *567:B1 2.30292e-05
35 *564:B *554:B1 4.43871e-06
36 *564:B *558:A1 3.09233e-05
37 *564:B *563:A1 0
38 *564:B *568:A2 4.82919e-05
39 *564:B *89:76 0
40 *564:B *103:49 0
41 *564:B *107:60 7.47036e-05
42 *60:6 *558:A1 0.000909655
43 *60:6 *133:74 1.91597e-05
44 *60:36 *558:A1 0.00112664
45 *60:51 *558:A2 2.7881e-05
46 *60:51 *558:A3 3.48406e-05
47 *60:51 *561:B 4.55864e-06
48 *60:51 *113:29 6.06752e-05
49 *60:51 *115:36 1.72991e-05
50 *60:70 *557:A1 8.1871e-05
51 *60:70 *557:B1 0
52 *60:70 *558:A3 3.6974e-05
53 *60:70 *559:B1 0.00011381
54 *60:70 *561:A 7.96104e-06
55 *60:70 *561:B 5.79732e-05
56 *60:70 *567:B1 0.000158072
57 *60:70 *115:36 1.42507e-05
58 *60:88 *560:B 0.00011411
59 *60:88 *568:B1 0
60 *60:88 *568:C1 0
61 *60:88 *607:A 3.17448e-05
62 *60:88 *107:72 0.000116158
63 *60:88 *107:74 5.16418e-05
64 *60:88 *120:16 3.3509e-05
65 *60:88 *135:20 0.000118021
66 *60:88 *135:33 2.4997e-05
67 *551:A2 *553:B1 2.09749e-05
68 *567:A1 *60:88 9.57611e-05
69 *589:D *60:88 0
70 *56:14 *564:B 2.75229e-05
*RES
1 *552:Y *60:4 1.6 
2 *60:4 *60:6 8.73 
3 *60:6 *555:C_N 9.32 
4 *60:6 *564:B 10.745 
5 *60:4 *60:36 12.455 
6 *60:36 *556:B 7.77 
7 *60:36 *60:51 2.145 
8 *60:51 *561:C 3.6 
9 *60:51 *60:70 6.8 
10 *60:70 *559:A2 1.6 
11 *60:70 *557:A2 2.05 
12 *60:4 *60:88 10.48 
13 *60:88 *567:A2 1.6 
14 *60:88 *553:B1 10.2125 
*END

*D_NET *61 0.00016657
*CONN
*I *554:A2 I *D sky130_fd_sc_hd__o21a_1
*I *553:X O *D sky130_fd_sc_hd__a32o_1
*CAP
1 *554:A2 6.15364e-05
2 *553:X 6.15364e-05
3 *554:A1 *554:A2 3.00381e-05
4 *56:25 *554:A2 1.34594e-05
*RES
1 *553:X *554:A2 3.995 
*END

*D_NET *62 0.00469045
*CONN
*I *558:A1 I *D sky130_fd_sc_hd__a31oi_1
*I *555:X O *D sky130_fd_sc_hd__or3b_1
*CAP
1 *558:A1 0.000515885
2 *555:X 0.000515885
3 *558:A1 *555:B 0
4 *558:A1 *558:B1 0.000160641
5 *558:A1 *563:A1 0
6 *558:A1 *599:A 0.00050498
7 *558:A1 *600:A 0.000125959
8 *558:A1 *89:76 0
9 *558:A1 *133:74 0.000799875
10 *564:B *558:A1 3.09233e-05
11 *60:6 *558:A1 0.000909655
12 *60:36 *558:A1 0.00112664
*RES
1 *555:X *558:A1 27.66 
*END

*D_NET *63 0.000567282
*CONN
*I *558:A2 I *D sky130_fd_sc_hd__a31oi_1
*I *556:Y O *D sky130_fd_sc_hd__nand2_1
*CAP
1 *558:A2 0.000141116
2 *556:Y 0.000141116
3 *558:A2 *558:A3 9.50342e-06
4 *558:A2 *99:27 7.34364e-05
5 *558:A2 *114:55 0.000124007
6 *556:B *558:A2 5.02217e-05
7 *60:51 *558:A2 2.7881e-05
*RES
1 *556:Y *558:A2 9.975 
*END

*D_NET *64 0.00140524
*CONN
*I *558:A3 I *D sky130_fd_sc_hd__a31oi_1
*I *557:X O *D sky130_fd_sc_hd__a21o_1
*CAP
1 *558:A3 0.000305464
2 *557:X 0.000305464
3 *558:A3 *559:B1 7.23602e-05
4 *558:A3 *567:B1 0.000313852
5 *558:A3 *99:27 0.000286629
6 *558:A3 *115:36 4.01548e-05
7 *558:A2 *558:A3 9.50342e-06
8 *60:51 *558:A3 3.48406e-05
9 *60:70 *558:A3 3.6974e-05
*RES
1 *557:X *558:A3 13.485 
*END

*D_NET *65 0.00050808
*CONN
*I *562:A1 I *D sky130_fd_sc_hd__a31oi_1
*I *559:X O *D sky130_fd_sc_hd__a21o_1
*CAP
1 *562:A1 6.48669e-05
2 *559:X 6.48669e-05
3 *562:A1 *557:A1 0.0001022
4 *562:A1 *562:B1 4.66108e-05
5 *562:A1 *567:B1 0.000229536
*RES
1 *559:X *562:A1 5.375 
*END

*D_NET *66 0.00155639
*CONN
*I *562:A2 I *D sky130_fd_sc_hd__a31oi_1
*I *560:X O *D sky130_fd_sc_hd__or4_1
*CAP
1 *562:A2 0.000373929
2 *560:X 0.000373929
3 *562:A2 *531:A 0.000107094
4 *562:A2 *538:B 0.000113237
5 *562:A2 *541:A1 4.16353e-05
6 *562:A2 *541:B1 8.01608e-05
7 *562:A2 *551:B1 0.000155653
8 *562:A2 *562:A3 0.000184182
9 *562:A2 *135:33 0.00012657
*RES
1 *560:X *562:A2 15.405 
*END

*D_NET *67 0.000798499
*CONN
*I *562:A3 I *D sky130_fd_sc_hd__a31oi_1
*I *561:Y O *D sky130_fd_sc_hd__nand3_1
*CAP
1 *562:A3 0.000194081
2 *561:Y 0.000194081
3 *562:A3 *541:A1 9.27255e-06
4 *562:A3 *541:B1 4.77437e-05
5 *562:A3 *551:B1 0.000118081
6 *562:A3 *567:B1 5.10587e-05
7 *562:A2 *562:A3 0.000184182
*RES
1 *561:Y *562:A3 10.665 
*END

*D_NET *68 0.000444097
*CONN
*I *566:A1 I *D sky130_fd_sc_hd__o31a_1
*I *563:X O *D sky130_fd_sc_hd__o41a_1
*CAP
1 *566:A1 0.000154792
2 *563:X 0.000154792
3 *566:A1 *563:A3 8.8266e-05
4 *566:A1 *563:B1 0
5 *566:A1 *565:C1 4.62466e-05
*RES
1 *563:X *566:A1 9.63 
*END

*D_NET *69 0.00194887
*CONN
*I *568:A2 I *D sky130_fd_sc_hd__a211o_1
*I *566:A2 I *D sky130_fd_sc_hd__o31a_1
*I *564:X O *D sky130_fd_sc_hd__and2_1
*CAP
1 *568:A2 0.000104426
2 *566:A2 9.39679e-05
3 *564:X 0
4 *69:4 0.000198393
5 *566:A2 *554:B1 0.000130638
6 *566:A2 *565:C1 0
7 *566:A2 *566:A3 3.00381e-05
8 *566:A2 *566:B1 0.000160635
9 *566:A2 *107:60 0.000280963
10 *568:A2 *554:B1 0.000498161
11 *564:B *568:A2 4.82919e-05
12 *56:14 *566:A2 2.7441e-05
13 *56:14 *568:A2 3.72413e-05
14 *56:25 *568:A2 0.000338673
*RES
1 *564:X *69:4 1.6 
2 *69:4 *566:A2 5.17 
3 *69:4 *568:A2 7 
*END

*D_NET *70 0.000479077
*CONN
*I *566:A3 I *D sky130_fd_sc_hd__o31a_1
*I *565:X O *D sky130_fd_sc_hd__o211a_1
*CAP
1 *566:A3 4.8208e-05
2 *565:X 4.8208e-05
3 *566:A3 *565:C1 4.82863e-05
4 *566:A3 *107:60 6.79807e-05
5 *566:A2 *566:A3 3.00381e-05
6 *56:14 *566:A3 0.000236355
*RES
1 *565:X *566:A3 5.375 
*END

*D_NET *71 0.00102785
*CONN
*I *568:B1 I *D sky130_fd_sc_hd__a211o_1
*I *567:Y O *D sky130_fd_sc_hd__a21oi_1
*CAP
1 *568:B1 0.000317246
2 *567:Y 0.000317246
3 *568:B1 *568:C1 8.7152e-06
4 *568:B1 *78:40 4.55864e-06
5 *568:B1 *78:59 9.5799e-06
6 *568:B1 *119:23 0.000172785
7 *553:B1 *568:B1 9.45067e-05
8 *589:D *568:B1 0.000103215
9 *593:D *568:B1 0
10 *60:88 *568:B1 0
*RES
1 *567:Y *568:B1 13.5262 
*END

*D_NET *72 0.000297452
*CONN
*I *570:C I *D sky130_fd_sc_hd__and3_1
*I *569:X O *D sky130_fd_sc_hd__or2_1
*CAP
1 *570:C 8.21103e-05
2 *569:X 8.21103e-05
3 *570:C *89:6 8.32699e-05
4 *570:C *89:16 4.99619e-05
*RES
1 *569:X *570:C 4.4 
*END

*D_NET *73 0.000278504
*CONN
*I *572:C I *D sky130_fd_sc_hd__and3_1
*I *571:X O *D sky130_fd_sc_hd__a21o_1
*CAP
1 *572:C 8.36964e-05
2 *571:X 8.36964e-05
3 *572:C *572:A 4.99619e-05
4 *572:C *89:16 4.49657e-05
5 *572:C *136:40 1.61831e-05
*RES
1 *571:X *572:C 4.4 
*END

*D_NET *74 0.0014141
*CONN
*I *574:C I *D sky130_fd_sc_hd__and3_1
*I *573:Y O *D sky130_fd_sc_hd__nand2_1
*CAP
1 *574:C 0.000322993
2 *573:Y 0.000322993
3 *574:C *534:A 0.000214272
4 *574:C *534:C 9.80943e-06
5 *574:C *534:D 0.000119756
6 *574:C *95:6 2.88314e-05
7 *574:C *95:10 2.42096e-06
8 *574:C *133:23 0
9 *574:C *136:58 0.000393029
*RES
1 *573:Y *574:C 10.385 
*END

*D_NET *75 0.000228459
*CONN
*I *576:A2 I *D sky130_fd_sc_hd__a21oi_1
*I *575:Y O *D sky130_fd_sc_hd__nand2_1
*CAP
1 *576:A2 2.85e-05
2 *575:Y 2.85e-05
3 *576:A2 *576:A1 8.57024e-05
4 *576:A2 *596:CLK 8.57563e-05
*RES
1 *575:Y *576:A2 4.355 
*END

*D_NET *76 0.00423071
*CONN
*I *543:B I *D sky130_fd_sc_hd__or4_1
*I *565:A1 I *D sky130_fd_sc_hd__o211a_1
*I *546:A2 I *D sky130_fd_sc_hd__o41a_1
*I *573:A I *D sky130_fd_sc_hd__nand2_1
*I *497:Y O *D sky130_fd_sc_hd__inv_2
*CAP
1 *543:B 0.000195718
2 *565:A1 0.000268501
3 *546:A2 3.38751e-05
4 *573:A 0.000122289
5 *497:Y 0
6 *76:19 0.000549747
7 *76:8 0.000780888
8 *76:4 0.000606946
9 *543:B *91:8 0.000198939
10 *546:A2 *134:93 4.82863e-05
11 *565:A1 *507:A 0
12 *565:A1 *539:B1 3.44069e-05
13 *565:A1 *540:A2 2.67022e-05
14 *565:A1 *565:C1 0
15 *565:A1 *94:42 2.7504e-05
16 *565:A1 *114:37 0
17 *565:A1 *114:55 0
18 *565:A1 *115:36 1.7635e-05
19 *565:A1 *134:93 0.000197385
20 *573:A *534:A 3.09164e-05
21 *573:A *573:B 2.17728e-05
22 *573:A *129:80 0
23 *573:A *134:39 0
24 *573:A *136:69 0
25 *76:8 *89:33 0.000580311
26 *76:8 *108:21 0.000393666
27 *76:19 *555:A 0
28 *76:19 *129:80 0
29 *76:19 *134:39 0
30 *565:B1 *565:A1 9.52234e-05
*RES
1 *497:Y *76:4 1.6 
2 *76:4 *76:8 12.11 
3 *76:8 *573:A 5.49 
4 *76:8 *76:19 3.93 
5 *76:19 *546:A2 4.05 
6 *76:19 *565:A1 9 
7 *76:4 *543:B 4.825 
*END

*D_NET *77 0.000197062
*CONN
*I *539:A1 I *D sky130_fd_sc_hd__o2111a_1
*I *498:Y O *D sky130_fd_sc_hd__inv_2
*CAP
1 *539:A1 1.02651e-05
2 *498:Y 1.02651e-05
3 *539:A1 *498:A 8.8266e-05
4 *539:A1 *129:80 8.8266e-05
*RES
1 *498:Y *539:A1 3.995 
*END

*D_NET *78 0.00918634
*CONN
*I *553:A1 I *D sky130_fd_sc_hd__a32o_1
*I *561:A I *D sky130_fd_sc_hd__nand3_1
*I *544:A I *D sky130_fd_sc_hd__nand3_1
*I *568:A1 I *D sky130_fd_sc_hd__a211o_1
*I *565:C1 I *D sky130_fd_sc_hd__o211a_1
*I *539:A2 I *D sky130_fd_sc_hd__o2111a_1
*I *507:Y O *D sky130_fd_sc_hd__inv_2
*CAP
1 *553:A1 0
2 *561:A 0.000209031
3 *544:A 0.000127615
4 *568:A1 0
5 *565:C1 0.000212491
6 *539:A2 0
7 *507:Y 0
8 *78:67 0.000563323
9 *78:59 0.000726413
10 *78:40 0.00132676
11 *78:10 0.000369124
12 *78:4 0.000983657
13 *544:A *541:B1 2.06509e-05
14 *544:A *544:B 0.000331844
15 *544:A *545:A1 0.000311403
16 *544:A *562:B1 0
17 *544:A *94:70 6.21124e-05
18 *561:A *527:C1 0.000177088
19 *561:A *551:B1 6.67706e-05
20 *561:A *561:B 1.7635e-05
21 *561:A *115:36 0.000452563
22 *565:C1 *539:B1 1.1561e-05
23 *565:C1 *563:A3 4.10429e-05
24 *565:C1 *563:B1 0
25 *565:C1 *565:A2 8.16563e-05
26 *565:C1 *94:42 2.93818e-05
27 *565:C1 *107:60 0.000278793
28 *78:10 *539:B1 2.07838e-05
29 *78:10 *546:A4 0.00012657
30 *78:10 *563:A3 7.9642e-06
31 *78:10 *563:A4 0
32 *78:10 *129:80 0
33 *78:10 *134:93 2.46007e-05
34 *78:40 *497:A 0
35 *78:40 *546:A4 0.000225586
36 *78:40 *568:C1 0.000142228
37 *78:40 *91:27 0.000724937
38 *78:40 *103:49 0
39 *78:59 *527:C1 0.000137622
40 *78:59 *551:A1 1.88602e-05
41 *78:59 *94:42 0.000292279
42 *78:59 *94:46 8.7152e-06
43 *78:67 *541:B1 6.55948e-05
44 *78:67 *553:B2 0.000124895
45 *78:67 *557:A1 0.000224698
46 *78:67 *94:70 8.39073e-05
47 *551:A2 *78:67 4.39253e-05
48 *553:B1 *78:59 1.88602e-05
49 *553:B1 *78:67 1.35171e-05
50 *554:A1 *78:67 0.000293936
51 *565:A1 *565:C1 0
52 *566:A1 *565:C1 4.62466e-05
53 *566:A2 *565:C1 0
54 *566:A3 *565:C1 4.82863e-05
55 *568:B1 *78:40 4.55864e-06
56 *568:B1 *78:59 9.5799e-06
57 *56:14 *565:C1 6.93182e-05
58 *56:25 *78:67 0
59 *60:70 *561:A 7.96104e-06
*RES
1 *507:Y *78:4 1.6 
2 *78:4 *78:10 4.52 
3 *78:10 *539:A2 3.6 
4 *78:10 *565:C1 9.69 
5 *78:4 *78:40 14.405 
6 *78:40 *568:A1 3.6 
7 *78:40 *78:59 4.49353 
8 *78:59 *78:67 8.3675 
9 *78:67 *544:A 8.1675 
10 *78:67 *561:A 6.72643 
11 *78:59 *553:A1 1.6 
*END

*D_NET *79 0.00343251
*CONN
*I *644:A I *D sky130_fd_sc_hd__buf_1
*I *510:Y O *D sky130_fd_sc_hd__nor4b_1
*CAP
1 *644:A 0.00113199
2 *510:Y 0.00113199
3 *644:A *515:A1 0
4 *644:A *80:40 0.000189235
5 *644:A *80:49 0.000111285
6 *644:A *90:10 4.66108e-05
7 *644:A *90:12 0.000163199
8 *644:A *90:22 4.82919e-05
9 *644:A *90:59 2.92496e-05
10 *644:A *104:10 0
11 *644:A *113:8 4.82863e-05
12 *644:A *113:29 0.000154947
13 *644:A *135:16 1.16578e-05
14 *644:A *137:31 2.10034e-05
15 *545:A2 *644:A 0.000171072
16 *545:A3 *644:A 4.82919e-05
17 *587:D *644:A 0.00012541
*RES
1 *510:Y *644:A 28.66 
*END

*D_NET *80 0.0131158
*CONN
*I *525:A2 I *D sky130_fd_sc_hd__o211a_1
*I *523:A2 I *D sky130_fd_sc_hd__o211a_1
*I *521:A2 I *D sky130_fd_sc_hd__o211a_1
*I *517:A2 I *D sky130_fd_sc_hd__o211a_1
*I *519:A2 I *D sky130_fd_sc_hd__o211a_1
*I *513:A2 I *D sky130_fd_sc_hd__o211a_1
*I *527:A2 I *D sky130_fd_sc_hd__o211a_1
*I *515:A2 I *D sky130_fd_sc_hd__o211a_1
*I *529:B I *D sky130_fd_sc_hd__nand2_2
*I *528:B I *D sky130_fd_sc_hd__and2_2
*I *511:X O *D sky130_fd_sc_hd__or4b_4
*CAP
1 *525:A2 0.000326749
2 *523:A2 0
3 *521:A2 0
4 *517:A2 7.09012e-05
5 *519:A2 0
6 *513:A2 1.85694e-05
7 *527:A2 0.000617715
8 *515:A2 1.21106e-05
9 *529:B 0.000145614
10 *528:B 0.000274443
11 *511:X 0
12 *80:130 0.000488639
13 *80:115 0.000281071
14 *80:98 0.000460469
15 *80:81 0.000443831
16 *80:66 0.000233063
17 *80:49 0.00110069
18 *80:40 0.000592428
19 *80:15 0.000668126
20 *80:4 0.00065856
21 *513:A2 *513:B1 9.53428e-06
22 *515:A2 *515:B1 9.10741e-06
23 *517:A2 *517:A1 0.000183043
24 *517:A2 *517:C1 5.42217e-05
25 *517:A2 *137:104 4.9968e-05
26 *525:A2 *524:B 0
27 *525:A2 *525:C1 0
28 *525:A2 *583:CLK 2.75229e-05
29 *525:A2 *584:CLK 9.00004e-05
30 *525:A2 *636:A 0.000118081
31 *527:A2 *503:A 7.5458e-05
32 *527:A2 *509:B 0.000576988
33 *527:A2 *513:A1 5.58515e-05
34 *527:A2 *513:C1 0.00015771
35 *527:A2 *527:B1 0.000123554
36 *527:A2 *527:C1 0
37 *527:A2 *116:10 0
38 *527:A2 *116:35 0
39 *528:B *511:D_N 1.61831e-05
40 *528:B *528:A 0.00012657
41 *528:B *136:25 2.28636e-05
42 *528:B *137:31 0.000339604
43 *529:B *515:A1 7.30547e-05
44 *529:B *90:10 4.82919e-05
45 *529:B *113:29 0.000154947
46 *529:B *137:31 4.82919e-05
47 *80:15 *515:A1 4.82919e-05
48 *80:15 *137:31 4.99619e-05
49 *80:40 *515:A1 0.000365268
50 *80:40 *515:B1 1.47256e-05
51 *80:40 *587:CLK 7.61774e-05
52 *80:49 *515:B1 4.41506e-05
53 *80:66 *513:B1 3.00381e-05
54 *80:81 *513:A1 5.36264e-05
55 *80:81 *513:B1 9.21168e-05
56 *80:81 *519:A1 7.23602e-05
57 *80:98 *518:A 0.000159867
58 *80:98 *518:B 4.82863e-05
59 *80:98 *519:B1 0.000175778
60 *80:98 *640:A 3.57349e-05
61 *80:98 *130:8 0.000426195
62 *80:98 *137:87 0.000145572
63 *80:98 *149:12 0.000238137
64 *80:115 *517:A1 0.00034058
65 *80:115 *640:A 8.23457e-05
66 *80:115 *104:79 0.000185405
67 *80:115 *104:88 0.000200648
68 *80:115 *130:8 7.3151e-05
69 *80:115 *137:104 1.94723e-05
70 *80:115 *137:113 4.18603e-06
71 *80:130 *559:B1 0.000114492
72 *80:130 *636:A 0
73 *80:130 *104:88 0.000314452
74 *80:130 *137:113 7.4645e-05
75 *579:D *80:49 1.83847e-05
76 *581:D *80:81 0
77 *584:D *525:A2 0
78 *587:D *80:15 0.000275542
79 *587:D *80:40 0.000281864
80 *610:A *527:A2 0
81 *644:A *80:40 0.000189235
82 *644:A *80:49 0.000111285
*RES
1 *511:X *80:4 1.6 
2 *80:4 *528:B 6.895 
3 *80:4 *80:15 6.315 
4 *80:15 *529:B 8.705 
5 *80:15 *80:40 6.48 
6 *80:40 *515:A2 1.96 
7 *80:40 *80:49 7.35 
8 *80:49 *527:A2 18.59 
9 *80:49 *80:66 0.795 
10 *80:66 *513:A2 1.96 
11 *80:66 *80:81 7.63 
12 *80:81 *519:A2 1.6 
13 *80:81 *80:98 9.33 
14 *80:98 *517:A2 7.745 
15 *80:98 *80:115 7.235 
16 *80:115 *521:A2 3.6 
17 *80:115 *80:130 6.74 
18 *80:130 *523:A2 1.6 
19 *80:130 *525:A2 11.585 
*END

*D_NET *81 0.00106934
*CONN
*I *513:B1 I *D sky130_fd_sc_hd__o211a_1
*I *512:X O *D sky130_fd_sc_hd__or2_1
*CAP
1 *513:B1 0.000409939
2 *512:X 0.000409939
3 *513:B1 *581:CLK 5.20968e-05
4 *513:B1 *638:A 1.7386e-05
5 *513:B1 *132:29 0
6 *513:A2 *513:B1 9.53428e-06
7 *578:D *513:B1 4.82919e-05
8 *80:66 *513:B1 3.00381e-05
9 *80:81 *513:B1 9.21168e-05
*RES
1 *512:X *513:B1 14.04 
*END

*D_NET *82 0.00124792
*CONN
*I *515:B1 I *D sky130_fd_sc_hd__o211a_1
*I *514:X O *D sky130_fd_sc_hd__or2_1
*CAP
1 *515:B1 0.000444658
2 *514:X 0.000444658
3 *515:B1 *515:A1 0.000113271
4 *515:B1 *587:CLK 1.37328e-05
5 *515:B1 *104:31 4.5783e-05
6 *515:B1 *132:12 0
7 *515:A2 *515:B1 9.10741e-06
8 *579:D *515:B1 0.000117832
9 *80:40 *515:B1 1.47256e-05
10 *80:49 *515:B1 4.41506e-05
*RES
1 *514:X *515:B1 14.25 
*END

*D_NET *83 0.000359873
*CONN
*I *517:B1 I *D sky130_fd_sc_hd__o211a_1
*I *516:X O *D sky130_fd_sc_hd__or2_1
*CAP
1 *517:B1 0.000170749
2 *516:X 0.000170749
3 *580:D *517:B1 1.83756e-05
*RES
1 *516:X *517:B1 5.735 
*END

*D_NET *84 0.000560753
*CONN
*I *519:B1 I *D sky130_fd_sc_hd__o211a_1
*I *518:X O *D sky130_fd_sc_hd__or2_1
*CAP
1 *519:B1 6.54907e-05
2 *518:X 6.54907e-05
3 *519:B1 *137:87 0.000253994
4 *80:98 *519:B1 0.000175778
*RES
1 *518:X *519:B1 5.735 
*END

*D_NET *85 0.00038471
*CONN
*I *521:B1 I *D sky130_fd_sc_hd__o211a_1
*I *520:X O *D sky130_fd_sc_hd__or2_1
*CAP
1 *521:B1 0.000160872
2 *520:X 0.000160872
3 *521:B1 *517:A1 1.08758e-05
4 *521:B1 *521:A1 5.20897e-05
*RES
1 *520:X *521:B1 5.735 
*END

*D_NET *86 0.000860051
*CONN
*I *523:B1 I *D sky130_fd_sc_hd__o211a_1
*I *522:X O *D sky130_fd_sc_hd__or2_1
*CAP
1 *523:B1 0.000207143
2 *522:X 0.000207143
3 *523:B1 *525:C1 8.53113e-06
4 *523:B1 *559:B1 0.000189886
5 *523:B1 *620:A 0.000107415
6 *523:B1 *137:113 0.000139933
*RES
1 *522:X *523:B1 11.01 
*END

*D_NET *87 0.000696531
*CONN
*I *525:B1 I *D sky130_fd_sc_hd__o211a_1
*I *524:X O *D sky130_fd_sc_hd__or2_1
*CAP
1 *525:B1 0.000209665
2 *524:X 0.000209665
3 *525:B1 *500:A 0.000134314
4 *525:B1 *524:A 8.8266e-05
5 *525:B1 *525:A1 5.4155e-06
6 *525:B1 *118:34 4.92062e-05
*RES
1 *524:X *525:B1 7.115 
*END

*D_NET *88 0.00128233
*CONN
*I *527:B1 I *D sky130_fd_sc_hd__o211a_1
*I *526:X O *D sky130_fd_sc_hd__or2_1
*CAP
1 *527:B1 0.000348145
2 *526:X 0.000348145
3 *527:B1 *503:A 0.000122337
4 *527:B1 *527:C1 7.28749e-05
5 *527:B1 *557:B1 0.000267274
6 *527:A2 *527:B1 0.000123554
*RES
1 *526:X *527:B1 14.115 
*END

*D_NET *89 0.0111126
*CONN
*I *570:A I *D sky130_fd_sc_hd__and3_1
*I *554:B1 I *D sky130_fd_sc_hd__o21a_1
*I *566:B1 I *D sky130_fd_sc_hd__o31a_1
*I *550:B1 I *D sky130_fd_sc_hd__o31a_1
*I *540:B1 I *D sky130_fd_sc_hd__o21a_1
*I *574:A I *D sky130_fd_sc_hd__and3_1
*I *572:A I *D sky130_fd_sc_hd__and3_1
*I *528:X O *D sky130_fd_sc_hd__and2_2
*CAP
1 *570:A 0
2 *554:B1 0.000636011
3 *566:B1 3.51283e-05
4 *550:B1 3.61777e-05
5 *540:B1 0.000460586
6 *574:A 0.000104341
7 *572:A 9.79255e-06
8 *528:X 8.26399e-05
9 *89:76 0.00103837
10 *89:48 0.000760234
11 *89:33 0.00117762
12 *89:27 0.00130565
13 *89:16 0.000482575
14 *89:6 0.000426805
15 *540:B1 *540:A2 0.000187238
16 *540:B1 *109:8 2.66586e-05
17 *540:B1 *112:31 8.65905e-05
18 *550:B1 *107:27 2.96553e-05
19 *550:B1 *109:24 0
20 *554:B1 *107:60 4.9968e-05
21 *572:A *136:40 2.75145e-05
22 *574:A *534:C 0
23 *574:A *107:21 0
24 *574:A *133:23 5.20485e-05
25 *89:6 *136:25 0.000238919
26 *89:16 *136:25 0.00015479
27 *89:16 *136:40 0.000257656
28 *89:27 *555:B 6.83488e-05
29 *89:27 *571:B1 0
30 *89:27 *129:80 0
31 *89:33 *108:21 0.000153859
32 *89:33 *133:47 5.0751e-05
33 *89:48 *542:A_N 5.98004e-06
34 *89:48 *107:21 0
35 *89:48 *107:27 5.9308e-05
36 *89:48 *133:23 2.84137e-05
37 *89:48 *133:47 7.45881e-05
38 *89:76 *555:B 0.000293733
39 *89:76 *563:A4 0.000135973
40 *89:76 *563:B1 0.000103327
41 *89:76 *107:60 0.000201442
42 *89:76 *129:80 0
43 *550:A1 *540:B1 1.33293e-05
44 *550:A2 *540:B1 1.61831e-05
45 *550:A2 *550:B1 8.53113e-06
46 *550:A3 *540:B1 4.82863e-05
47 *555:C_N *89:76 0.000159964
48 *558:A1 *89:76 0
49 *564:B *554:B1 4.43871e-06
50 *564:B *89:76 0
51 *566:A2 *554:B1 0.000130638
52 *566:A2 *566:B1 0.000160635
53 *567:A1 *554:B1 7.79767e-06
54 *568:A2 *554:B1 0.000498161
55 *570:C *89:6 8.32699e-05
56 *570:C *89:16 4.99619e-05
57 *572:C *572:A 4.99619e-05
58 *572:C *89:16 4.49657e-05
59 *595:D *89:16 4.82863e-05
60 *56:14 *554:B1 4.08514e-05
61 *56:14 *566:B1 9.2741e-05
62 *56:25 *554:B1 0.000231605
63 *76:8 *89:33 0.000580311
*RES
1 *528:X *89:6 3.775 
2 *89:6 *89:16 6.9 
3 *89:16 *572:A 2.05 
4 *89:16 *89:27 3.89 
5 *89:27 *89:33 14.8 
6 *89:33 *574:A 5.49 
7 *89:33 *89:48 5.085 
8 *89:48 *540:B1 10.65 
9 *89:48 *550:B1 4.47 
10 *89:27 *89:76 11.03 
11 *89:76 *566:B1 3.085 
12 *89:76 *554:B1 16.565 
13 *89:6 *570:A 1.6 
*END

*D_NET *90 0.0122752
*CONN
*I *562:B1 I *D sky130_fd_sc_hd__a31oi_1
*I *558:B1 I *D sky130_fd_sc_hd__a31oi_1
*I *545:B1 I *D sky130_fd_sc_hd__a31oi_1
*I *568:C1 I *D sky130_fd_sc_hd__a211o_1
*I *576:B1 I *D sky130_fd_sc_hd__a21oi_1
*I *529:Y O *D sky130_fd_sc_hd__nand2_2
*CAP
1 *562:B1 0.000192393
2 *558:B1 2.90827e-05
3 *545:B1 0
4 *568:C1 0.000711547
5 *576:B1 0.00201728
6 *529:Y 0.000166409
7 *90:59 0.000430826
8 *90:22 0.00391084
9 *90:12 0.00120247
10 *90:10 0.000396216
11 *558:B1 *600:A 0.000160641
12 *562:B1 *541:A2 0.000193957
13 *562:B1 *545:A1 0
14 *562:B1 *551:B1 0.000153892
15 *562:B1 *557:A1 4.66108e-05
16 *562:B1 *113:29 7.8798e-05
17 *568:C1 *497:A 0
18 *568:C1 *511:A 0
19 *568:C1 *543:C 6.58955e-06
20 *568:C1 *560:B 0
21 *568:C1 *560:D 5.67761e-05
22 *568:C1 *570:B 6.42183e-05
23 *568:C1 *91:23 0.000201889
24 *568:C1 *103:16 0
25 *568:C1 *129:14 0
26 *568:C1 *129:18 0
27 *568:C1 *137:10 0
28 *576:B1 *594:CLK 0.000159099
29 *576:B1 *595:CLK 0.00012809
30 *576:B1 *596:CLK 0.000282956
31 *576:B1 *107:10 1.67266e-05
32 *90:10 *529:A 0
33 *90:10 *137:31 0.00013175
34 *90:10 *137:40 5.30673e-05
35 *90:12 *137:31 0.000153217
36 *90:22 *515:A1 0
37 *90:22 *545:A1 3.12375e-05
38 *90:22 *594:CLK 3.64998e-06
39 *90:22 *605:A 9.88446e-05
40 *90:22 *112:41 0
41 *90:22 *137:31 4.82919e-05
42 *90:59 *545:A1 0
43 *90:59 *113:29 0.000175009
44 *529:B *90:10 4.82919e-05
45 *544:A *562:B1 0
46 *558:A1 *558:B1 0.000160641
47 *562:A1 *562:B1 4.66108e-05
48 *568:B1 *568:C1 8.7152e-06
49 *587:D *90:22 0.000141592
50 *594:D *568:C1 9.47454e-05
51 *594:D *90:22 2.62239e-05
52 *595:D *576:B1 6.50844e-06
53 *596:D *576:B1 9.92749e-06
54 *644:A *90:10 4.66108e-05
55 *644:A *90:12 0.000163199
56 *644:A *90:22 4.82919e-05
57 *644:A *90:59 2.92496e-05
58 *60:88 *568:C1 0
59 *78:40 *568:C1 0.000142228
*RES
1 *529:Y *90:10 4.93 
2 *90:10 *90:12 1.485 
3 *90:12 *90:22 19.51 
4 *90:22 *576:B1 26.935 
5 *90:22 *568:C1 19.265 
6 *90:12 *545:B1 1.6 
7 *90:10 *90:59 6.185 
8 *90:59 *558:B1 5.085 
9 *90:59 *562:B1 8.235 
*END

*D_NET *91 0.00614938
*CONN
*I *543:D I *D sky130_fd_sc_hd__or4_1
*I *560:D I *D sky130_fd_sc_hd__or4_1
*I *563:A4 I *D sky130_fd_sc_hd__o41a_1
*I *546:A4 I *D sky130_fd_sc_hd__o41a_1
*I *570:B I *D sky130_fd_sc_hd__and3_1
*I *530:Y O *D sky130_fd_sc_hd__nand2_1
*CAP
1 *543:D 0
2 *560:D 0.000168607
3 *563:A4 7.80603e-05
4 *546:A4 0.000216284
5 *570:B 0.000186602
6 *530:Y 6.32604e-05
7 *91:27 0.000487994
8 *91:23 0.00058693
9 *91:10 0.000411276
10 *91:8 6.32604e-05
11 *546:A4 *540:A2 4.99619e-05
12 *546:A4 *546:A1 8.40269e-05
13 *546:A4 *133:66 9.07709e-05
14 *546:A4 *133:74 0.000310728
15 *560:D *560:A 0.000120655
16 *560:D *107:70 0.000235573
17 *563:A4 *563:B1 8.7152e-06
18 *563:A4 *129:80 0
19 *570:B *511:D_N 0
20 *570:B *543:C 0.000233812
21 *91:8 *530:B 0.000154046
22 *91:23 *511:D_N 0
23 *91:23 *133:78 0
24 *91:27 *133:74 0.000863932
25 *543:B *91:8 0.000198939
26 *568:C1 *560:D 5.67761e-05
27 *568:C1 *570:B 6.42183e-05
28 *568:C1 *91:23 0.000201889
29 *78:10 *546:A4 0.00012657
30 *78:10 *563:A4 0
31 *78:40 *546:A4 0.000225586
32 *78:40 *91:27 0.000724937
33 *89:76 *563:A4 0.000135973
*RES
1 *530:Y *91:8 3.79 
2 *91:8 *91:10 2 
3 *91:10 *570:B 6.375 
4 *91:10 *91:23 4.44 
5 *91:23 *91:27 10.04 
6 *91:27 *546:A4 7.93 
7 *91:27 *563:A4 7.235 
8 *91:23 *560:D 7.5 
9 *91:8 *543:D 1.6 
*END

*D_NET *92 0.00281728
*CONN
*I *557:A1 I *D sky130_fd_sc_hd__a21o_1
*I *553:B2 I *D sky130_fd_sc_hd__a32o_1
*I *531:X O *D sky130_fd_sc_hd__and3_1
*CAP
1 *557:A1 0.000320064
2 *553:B2 3.02352e-05
3 *531:X 0.000185432
4 *92:12 0.000535731
5 *553:B2 *551:A1 1.61831e-05
6 *557:A1 *499:A 8.8266e-05
7 *557:A1 *541:A2 8.23457e-05
8 *557:A1 *551:B1 0.000289288
9 *557:A1 *567:B1 6.19618e-05
10 *557:A1 *99:29 0.000227261
11 *92:12 *506:A 9.44253e-05
12 *92:12 *531:A 0.000112306
13 *92:12 *538:B 0.000113511
14 *92:12 *607:A 0
15 *551:A2 *553:B2 3.00381e-05
16 *557:A2 *557:A1 4.99619e-05
17 *562:A1 *557:A1 0.0001022
18 *562:B1 *557:A1 4.66108e-05
19 *60:70 *557:A1 8.1871e-05
20 *78:67 *553:B2 0.000124895
21 *78:67 *557:A1 0.000224698
*RES
1 *531:X *92:12 9.05 
2 *92:12 *553:B2 2.74 
3 *92:12 *557:A1 11.05 
*END

*D_NET *93 0.00217993
*CONN
*I *572:B I *D sky130_fd_sc_hd__and3_1
*I *555:B I *D sky130_fd_sc_hd__or3b_1
*I *573:B I *D sky130_fd_sc_hd__nand2_1
*I *532:Y O *D sky130_fd_sc_hd__nand3_1
*CAP
1 *572:B 0
2 *555:B 0.000191229
3 *573:B 0.000170249
4 *532:Y 0
5 *93:19 0.000448959
6 *93:4 0.000427978
7 *555:B *563:A1 0
8 *555:B *103:16 0
9 *573:B *532:A 4.55864e-06
10 *573:B *534:A 2.95708e-05
11 *573:B *129:80 0
12 *573:B *134:10 4.99619e-05
13 *573:B *134:16 8.73415e-05
14 *93:19 *134:6 0.000198945
15 *93:19 *134:10 0.000187281
16 *558:A1 *555:B 0
17 *573:A *573:B 2.17728e-05
18 *89:27 *555:B 6.83488e-05
19 *89:76 *555:B 0.000293733
*RES
1 *532:Y *93:4 1.6 
2 *93:4 *573:B 7.955 
3 *93:4 *93:19 3.555 
4 *93:19 *555:B 9.785 
5 *93:19 *572:B 1.6 
*END

*D_NET *94 0.00975562
*CONN
*I *541:A1 I *D sky130_fd_sc_hd__a21o_1
*I *544:B I *D sky130_fd_sc_hd__nand3_1
*I *551:A1 I *D sky130_fd_sc_hd__a21oi_1
*I *553:A2 I *D sky130_fd_sc_hd__a32o_1
*I *539:B1 I *D sky130_fd_sc_hd__o2111a_1
*I *548:A I *D sky130_fd_sc_hd__and2_1
*I *533:X O *D sky130_fd_sc_hd__and2b_1
*CAP
1 *541:A1 0.000139491
2 *544:B 0.000123149
3 *551:A1 0.000187197
4 *553:A2 0
5 *539:B1 6.12123e-05
6 *548:A 0.000247701
7 *533:X 0.00016899
8 *94:70 0.000537186
9 *94:46 0.000262636
10 *94:42 0.001474
11 *94:27 0.00145367
12 *94:10 0.000685133
13 *539:B1 *563:A3 5.06809e-05
14 *539:B1 *134:93 4.92861e-05
15 *541:A1 *541:B1 0.00012657
16 *541:A1 *545:A1 8.65961e-05
17 *541:A1 *551:B1 1.83756e-05
18 *544:B *506:A 0.000128101
19 *548:A *498:A 8.49205e-05
20 *548:A *542:A_N 8.49205e-05
21 *548:A *565:A2 4.11281e-05
22 *548:A *107:60 0.000115464
23 *551:A1 *120:16 2.31046e-05
24 *94:10 *547:B 1.52184e-05
25 *94:10 *547:C_N 2.66935e-05
26 *94:10 *114:37 3.69334e-05
27 *94:10 *114:55 1.01661e-05
28 *94:10 *133:66 0.000117832
29 *94:10 *136:69 6.10014e-05
30 *94:10 *136:80 7.17811e-05
31 *94:10 *136:91 5.02217e-05
32 *94:27 *498:A 0.000354095
33 *94:42 *527:C1 9.8635e-05
34 *94:42 *115:36 0.000748731
35 *94:46 *607:A 2.5679e-05
36 *94:46 *120:16 1.71416e-05
37 *94:70 *506:A 5.07439e-05
38 *94:70 *527:C1 0.000477331
39 *94:70 *115:36 0.000190353
40 *544:A *544:B 0.000331844
41 *544:A *94:70 6.21124e-05
42 *549:C *548:A 5.41715e-05
43 *551:A2 *551:A1 0.00019637
44 *553:B1 *551:A1 1.45569e-05
45 *553:B2 *551:A1 1.61831e-05
46 *562:A2 *541:A1 4.16353e-05
47 *562:A3 *541:A1 9.27255e-06
48 *565:A1 *539:B1 3.44069e-05
49 *565:A1 *94:42 2.7504e-05
50 *565:C1 *539:B1 1.1561e-05
51 *565:C1 *94:42 2.93818e-05
52 *78:10 *539:B1 2.07838e-05
53 *78:59 *551:A1 1.88602e-05
54 *78:59 *94:42 0.000292279
55 *78:59 *94:46 8.7152e-06
56 *78:67 *94:70 8.39073e-05
*RES
1 *533:X *94:10 9.785 
2 *94:10 *548:A 9.5 
3 *94:10 *94:27 5.555 
4 *94:27 *539:B1 4.98 
5 *94:27 *94:42 3.96077 
6 *94:42 *94:46 1.4975 
7 *94:46 *553:A2 3.6 
8 *94:46 *551:A1 6.39 
9 *94:42 *94:70 2.9997 
10 *94:70 *544:B 7.53 
11 *94:70 *541:A1 6.465 
*END

*D_NET *95 0.00192705
*CONN
*I *574:B I *D sky130_fd_sc_hd__and3_1
*I *535:B I *D sky130_fd_sc_hd__or2_1
*I *575:B I *D sky130_fd_sc_hd__nand2_1
*I *536:A2 I *D sky130_fd_sc_hd__o21a_1
*I *534:Y O *D sky130_fd_sc_hd__nand4_1
*CAP
1 *574:B 0
2 *535:B 0
3 *575:B 8.00464e-05
4 *536:A2 0.000145979
5 *534:Y 0.000209331
6 *95:12 0.000296966
7 *95:10 0.000235728
8 *95:6 0.000374119
9 *536:A2 *575:A 8.49205e-05
10 *536:A2 *108:12 2.45897e-05
11 *536:A2 *112:41 3.12639e-05
12 *575:B *575:A 7.36562e-05
13 *575:B *576:A1 7.23602e-05
14 *95:6 *534:C 5.83121e-06
15 *95:6 *534:D 1.47256e-05
16 *95:10 *133:23 4.39933e-05
17 *95:12 *575:A 0.000114024
18 *95:12 *133:23 8.8266e-05
19 *574:C *95:6 2.88314e-05
20 *574:C *95:10 2.42096e-06
*RES
1 *534:Y *95:6 4.12 
2 *95:6 *95:10 2.355 
3 *95:10 *95:12 1.83 
4 *95:12 *536:A2 8.375 
5 *95:12 *575:B 7.49 
6 *95:10 *535:B 1.6 
7 *95:6 *574:B 1.6 
*END

*D_NET *96 0.00057134
*CONN
*I *576:A1 I *D sky130_fd_sc_hd__a21oi_1
*I *535:X O *D sky130_fd_sc_hd__or2_1
*CAP
1 *576:A1 0.000178998
2 *535:X 0.000178998
3 *576:A1 *596:CLK 5.52819e-05
4 *575:B *576:A1 7.23602e-05
5 *576:A2 *576:A1 8.57024e-05
6 *596:D *576:A1 0
*RES
1 *535:X *576:A1 9.9 
*END

*D_NET *97 0.000747562
*CONN
*I *540:A1 I *D sky130_fd_sc_hd__o21a_1
*I *536:X O *D sky130_fd_sc_hd__o21a_1
*CAP
1 *540:A1 0.000248476
2 *536:X 0.000248476
3 *540:A1 *103:63 0
4 *540:A1 *109:24 0
5 *540:A1 *112:31 0.000250609
*RES
1 *536:X *540:A1 11.415 
*END

*D_NET *98 0.00272289
*CONN
*I *565:A2 I *D sky130_fd_sc_hd__o211a_1
*I *549:B_N I *D sky130_fd_sc_hd__and4bb_1
*I *537:X O *D sky130_fd_sc_hd__and2b_1
*CAP
1 *565:A2 0.00020114
2 *549:B_N 0.000218369
3 *537:X 9.48781e-05
4 *98:10 0.000514388
5 *549:B_N *549:D 4.82863e-05
6 *549:B_N *115:36 0.000387008
7 *565:A2 *542:A_N 3.23391e-05
8 *565:A2 *547:A 0.000243275
9 *565:A2 *107:60 9.85367e-05
10 *98:10 *537:B 4.99619e-05
11 *98:10 *542:A_N 8.5225e-05
12 *98:10 *547:A 2.23922e-05
13 *98:10 *134:54 0.00013521
14 *548:A *565:A2 4.11281e-05
15 *550:A1 *98:10 4.80285e-05
16 *565:C1 *565:A2 8.16563e-05
17 *56:14 *565:A2 0.000421068
*RES
1 *537:X *98:10 6.285 
2 *98:10 *549:B_N 7.605 
3 *98:10 *565:A2 10.26 
*END

*D_NET *99 0.00475282
*CONN
*I *556:A I *D sky130_fd_sc_hd__nand2_1
*I *559:A1 I *D sky130_fd_sc_hd__a21o_1
*I *561:B I *D sky130_fd_sc_hd__nand3_1
*I *541:A2 I *D sky130_fd_sc_hd__a21o_1
*I *544:C I *D sky130_fd_sc_hd__nand3_1
*I *538:X O *D sky130_fd_sc_hd__and3b_1
*CAP
1 *556:A 0
2 *559:A1 0
3 *561:B 0.000138636
4 *541:A2 0.000157579
5 *544:C 1.77753e-05
6 *538:X 4.74916e-05
7 *99:29 0.000449604
8 *99:27 0.00052944
9 *99:21 0.000548432
10 *99:8 0.000237648
11 *541:A2 *551:B1 1.7902e-05
12 *541:A2 *113:29 0.000235394
13 *561:B *559:B1 0
14 *561:B *113:29 0.000256978
15 *99:8 *114:55 5.62169e-05
16 *99:8 *129:6 4.66826e-05
17 *99:8 *129:8 5.83121e-06
18 *99:21 *602:A 0.000504484
19 *99:21 *114:55 0.000252141
20 *99:21 *129:6 9.46379e-05
21 *99:27 *499:A 8.53113e-06
22 *99:27 *559:B1 3.09128e-05
23 *99:27 *104:10 0
24 *99:27 *113:29 0
25 *556:B *99:21 0.000163199
26 *556:B *99:27 0
27 *557:A1 *541:A2 8.23457e-05
28 *557:A1 *99:29 0.000227261
29 *558:A2 *99:27 7.34364e-05
30 *558:A3 *99:27 0.000286629
31 *561:A *561:B 1.7635e-05
32 *562:B1 *541:A2 0.000193957
33 *591:D *541:A2 9.50342e-06
34 *60:51 *561:B 4.55864e-06
35 *60:70 *561:B 5.79732e-05
*RES
1 *538:X *99:8 2.755 
2 *99:8 *544:C 1.96 
3 *99:8 *99:21 7.125 
4 *99:21 *99:27 10.99 
5 *99:27 *99:29 2.175 
6 *99:29 *541:A2 9.305 
7 *99:29 *561:B 8.765 
8 *99:27 *559:A1 1.6 
9 *99:21 *556:A 1.6 
*END

*D_NET *100 0.00254324
*CONN
*I *540:A2 I *D sky130_fd_sc_hd__o21a_1
*I *539:X O *D sky130_fd_sc_hd__o2111a_1
*CAP
1 *540:A2 0.00070814
2 *539:X 0.00070814
3 *540:A2 *109:8 0.000211748
4 *540:A2 *114:37 4.26316e-05
5 *540:A2 *133:66 4.16445e-05
6 *540:A2 *134:43 6.07575e-06
7 *540:B1 *540:A2 0.000187238
8 *546:A4 *540:A2 4.99619e-05
9 *550:A1 *540:A2 0.000560961
10 *565:A1 *540:A2 2.67022e-05
*RES
1 *539:X *540:A2 19.59 
*END

*D_NET *101 0.00120353
*CONN
*I *545:A1 I *D sky130_fd_sc_hd__a31oi_1
*I *541:X O *D sky130_fd_sc_hd__a21o_1
*CAP
1 *545:A1 0.000365103
2 *541:X 0.000365103
3 *545:A1 *506:A 0
4 *541:A1 *545:A1 8.65961e-05
5 *544:A *545:A1 0.000311403
6 *545:A3 *545:A1 4.40899e-05
7 *562:B1 *545:A1 0
8 *90:22 *545:A1 3.12375e-05
9 *90:59 *545:A1 0
*RES
1 *541:X *545:A1 13.71 
*END

*D_NET *102 0.00269101
*CONN
*I *600:A I *D sky130_fd_sc_hd__clkbuf_16
*I *599:A I *D sky130_fd_sc_hd__clkbuf_16
*I *598:X O *D sky130_fd_sc_hd__clkbuf_16
*CAP
1 *600:A 0.000255466
2 *599:A 0.000531958
3 *598:X 2.08101e-05
4 *102:6 0.000808234
5 *599:A *133:74 4.82863e-05
6 *558:A1 *599:A 0.00050498
7 *558:A1 *600:A 0.000125959
8 *558:B1 *600:A 0.000160641
9 *590:D *600:A 0.00023468
*RES
1 *598:X *102:6 1.96 
2 *102:6 *599:A 10.33 
3 *102:6 *600:A 6.88 
*END

*D_NET *103 0.0109134
*CONN
*I *593:CLK I *D sky130_fd_sc_hd__dfxtp_1
*I *592:CLK I *D sky130_fd_sc_hd__dfxtp_1
*I *589:CLK I *D sky130_fd_sc_hd__dfxtp_1
*I *588:CLK I *D sky130_fd_sc_hd__dfxtp_1
*I *586:CLK I *D sky130_fd_sc_hd__dfxtp_1
*I *597:CLK I *D sky130_fd_sc_hd__dfxtp_1
*I *596:CLK I *D sky130_fd_sc_hd__dfxtp_2
*I *601:A I *D sky130_fd_sc_hd__clkinvlp_4
*I *594:CLK I *D sky130_fd_sc_hd__dfxtp_1
*I *595:CLK I *D sky130_fd_sc_hd__dfxtp_1
*I *599:X O *D sky130_fd_sc_hd__clkbuf_16
*CAP
1 *593:CLK 2.0959e-05
2 *592:CLK 0
3 *589:CLK 0
4 *588:CLK 0
5 *586:CLK 0
6 *597:CLK 0
7 *596:CLK 0.00049086
8 *601:A 9.1654e-05
9 *594:CLK 7.80336e-05
10 *595:CLK 0.000165001
11 *599:X 0
12 *103:63 0.000865712
13 *103:61 0.000638219
14 *103:59 0.00059638
15 *103:53 0.000736304
16 *103:51 0.000737935
17 *103:49 0.00075065
18 *103:16 0.000613198
19 *103:8 0.000505107
20 *103:6 0.000438336
21 *594:CLK *604:A 0.000115146
22 *594:CLK *605:A 8.95933e-05
23 *595:CLK *604:A 7.37365e-05
24 *601:A *114:55 0.000115762
25 *103:8 *497:A 7.63282e-05
26 *103:8 *563:A1 0.000130721
27 *103:16 *497:A 8.83773e-05
28 *103:16 *563:A1 0.000148956
29 *103:16 *604:A 4.82863e-05
30 *103:16 *129:18 0
31 *103:16 *129:31 5.05716e-06
32 *103:49 *497:A 0.00010455
33 *103:49 *563:A1 0.000207898
34 *103:51 *118:8 7.35813e-05
35 *103:59 *624:A 0
36 *103:59 *115:8 0.000186204
37 *103:59 *115:36 0
38 *103:61 *115:36 0
39 *103:63 *112:31 0
40 *103:63 *112:41 0
41 *540:A1 *103:63 0
42 *555:B *103:16 0
43 *564:B *103:49 0
44 *568:C1 *103:16 0
45 *576:A1 *596:CLK 5.52819e-05
46 *576:A2 *596:CLK 8.57563e-05
47 *576:B1 *594:CLK 0.000159099
48 *576:B1 *595:CLK 0.00012809
49 *576:B1 *596:CLK 0.000282956
50 *589:D *593:CLK 2.16917e-05
51 *589:D *103:51 0.000677921
52 *589:D *103:53 0.00108802
53 *589:D *103:59 0.000113663
54 *592:D *103:51 9.03376e-05
55 *595:D *595:CLK 1.43717e-05
56 *595:D *103:16 0
57 *597:D *596:CLK 0
58 *78:40 *103:49 0
59 *90:22 *594:CLK 3.64998e-06
*RES
1 *599:X *103:6 3.6 
2 *103:6 *103:8 1.635 
3 *103:8 *103:16 8.525 
4 *103:16 *595:CLK 5.635 
5 *103:16 *594:CLK 5.155 
6 *103:8 *601:A 5.43 
7 *103:6 *103:49 8.735 
8 *103:49 *103:51 8.73 
9 *103:51 *103:53 10.455 
10 *103:53 *103:59 8.48 
11 *103:59 *103:61 4.185 
12 *103:61 *103:63 6.225 
13 *103:63 *596:CLK 13.215 
14 *103:63 *597:CLK 3.6 
15 *103:61 *586:CLK 3.6 
16 *103:59 *588:CLK 3.6 
17 *103:53 *589:CLK 1.6 
18 *103:51 *592:CLK 1.6 
19 *103:49 *593:CLK 2.05 
*END

*D_NET *104 0.0111494
*CONN
*I *590:CLK I *D sky130_fd_sc_hd__dfxtp_1
*I *585:CLK I *D sky130_fd_sc_hd__dfxtp_1
*I *591:CLK I *D sky130_fd_sc_hd__dfxtp_1
*I *508:A I *D sky130_fd_sc_hd__inv_2
*I *584:CLK I *D sky130_fd_sc_hd__dfxtp_1
*I *583:CLK I *D sky130_fd_sc_hd__dfxtp_1
*I *582:CLK I *D sky130_fd_sc_hd__dfxtp_1
*I *580:CLK I *D sky130_fd_sc_hd__dfxtp_1
*I *581:CLK I *D sky130_fd_sc_hd__dfxtp_1
*I *578:CLK I *D sky130_fd_sc_hd__dfxtp_1
*I *579:CLK I *D sky130_fd_sc_hd__dfxtp_1
*I *587:CLK I *D sky130_fd_sc_hd__dfxtp_1
*I *600:X O *D sky130_fd_sc_hd__clkbuf_16
*CAP
1 *590:CLK 1.67644e-05
2 *585:CLK 0.00017381
3 *591:CLK 0.000312449
4 *508:A 0
5 *584:CLK 7.43823e-05
6 *583:CLK 5.48453e-05
7 *582:CLK 0
8 *580:CLK 2.08101e-05
9 *581:CLK 7.86016e-05
10 *578:CLK 1.90984e-05
11 *579:CLK 5.70552e-05
12 *587:CLK 0.000128126
13 *600:X 0
14 *104:125 0.000600326
15 *104:114 0.000386996
16 *104:110 0.000405783
17 *104:88 0.000379166
18 *104:79 0.000545323
19 *104:66 0.000932097
20 *104:51 0.000761181
21 *104:42 0.000698572
22 *104:31 0.000761824
23 *104:10 0.000814257
24 *104:4 0.000710249
25 *581:CLK *513:A1 0
26 *581:CLK *132:29 0
27 *583:CLK *636:A 1.12578e-05
28 *584:CLK *523:A1 0.000155227
29 *584:CLK *524:B 0
30 *584:CLK *559:B1 7.90356e-06
31 *585:CLK *527:A1 0.000148275
32 *585:CLK *631:A 2.75229e-05
33 *585:CLK *117:22 0.000115707
34 *587:CLK *515:A1 8.8266e-05
35 *590:CLK *517:A1 4.82919e-05
36 *591:CLK *527:A1 0.000448536
37 *591:CLK *631:A 7.35729e-05
38 *104:10 *515:A1 2.05641e-05
39 *104:10 *515:C1 6.42427e-05
40 *104:10 *114:55 0
41 *104:31 *515:A1 4.01019e-05
42 *104:79 *516:B 0
43 *104:79 *517:A1 9.60974e-05
44 *104:79 *130:21 0
45 *104:88 *522:A 0
46 *104:88 *524:B 0
47 *104:88 *559:B1 1.26626e-05
48 *104:88 *130:21 0
49 *104:88 *130:32 0
50 *104:110 *517:A1 0.000161529
51 *104:114 *503:A 0
52 *104:114 *504:A 0
53 *104:114 *519:A1 0
54 *104:114 *527:C1 1.32974e-05
55 *104:114 *577:CLK 0.000115464
56 *104:125 *504:A 0
57 *104:125 *527:C1 6.05917e-05
58 *104:125 *117:22 0
59 *513:B1 *581:CLK 5.20968e-05
60 *515:B1 *587:CLK 1.37328e-05
61 *515:B1 *104:31 4.5783e-05
62 *525:A2 *583:CLK 2.75229e-05
63 *525:A2 *584:CLK 9.00004e-05
64 *578:D *581:CLK 3.86529e-05
65 *578:D *104:51 7.82691e-05
66 *579:D *104:42 1.43717e-05
67 *580:D *104:79 5.21046e-05
68 *581:D *581:CLK 4.18603e-06
69 *582:D *104:79 4.18603e-06
70 *582:D *104:88 5.92849e-05
71 *583:D *583:CLK 3.00381e-05
72 *590:D *104:10 8.8861e-05
73 *590:D *104:110 2.16833e-05
74 *591:D *591:CLK 0.0001111
75 *644:A *104:10 0
76 *80:40 *587:CLK 7.61774e-05
77 *80:115 *104:79 0.000185405
78 *80:115 *104:88 0.000200648
79 *80:130 *104:88 0.000314452
80 *99:27 *104:10 0
*RES
1 *600:X *104:4 1.6 
2 *104:4 *104:10 10.7075 
3 *104:10 *587:CLK 5.7825 
4 *104:10 *104:31 3.9575 
5 *104:31 *579:CLK 2.665 
6 *104:31 *104:42 8.385 
7 *104:42 *578:CLK 1.96 
8 *104:42 *104:51 1.14 
9 *104:51 *581:CLK 7.34 
10 *104:51 *104:66 8.385 
11 *104:66 *580:CLK 1.96 
12 *104:66 *104:79 8.165 
13 *104:79 *582:CLK 3.6 
14 *104:79 *104:88 6.225 
15 *104:88 *583:CLK 4.74 
16 *104:88 *584:CLK 5.745 
17 *104:4 *104:110 2.445 
18 *104:110 *104:114 6.44 
19 *104:114 *508:A 3.6 
20 *104:114 *104:125 4.145 
21 *104:125 *591:CLK 9.415 
22 *104:125 *585:CLK 5.5 
23 *104:110 *590:CLK 2.05 
*END

*D_NET *105 0.00273142
*CONN
*I *538:A_N I *D sky130_fd_sc_hd__and3b_1
*I *530:B I *D sky130_fd_sc_hd__nand2_1
*I *510:C I *D sky130_fd_sc_hd__nor4b_1
*I *606:A I *D sky130_fd_sc_hd__buf_2
*I *594:Q O *D sky130_fd_sc_hd__dfxtp_1
*CAP
1 *538:A_N 8.7874e-05
2 *530:B 0.000346069
3 *510:C 2.74333e-05
4 *606:A 0
5 *594:Q 0.000190773
6 *105:19 0.000441216
7 *105:17 0.000160008
8 *105:8 0.000195194
9 *510:C *135:16 5.68175e-05
10 *510:C *135:20 9.82856e-06
11 *510:C *137:10 9.29751e-06
12 *530:B *510:A 8.49205e-05
13 *530:B *543:A 4.82863e-05
14 *530:B *135:16 8.49205e-05
15 *530:B *135:20 5.38986e-06
16 *538:A_N *607:A 4.18603e-06
17 *538:A_N *114:55 2.49909e-05
18 *538:A_N *129:14 4.66108e-05
19 *538:A_N *135:20 0
20 *105:8 *135:16 0.000113828
21 *105:8 *137:10 0
22 *545:A2 *510:C 4.99619e-05
23 *545:A2 *530:B 2.45351e-05
24 *598:A *538:A_N 0.000148424
25 *598:A *105:8 0.00039625
26 *598:A *105:17 2.05571e-05
27 *91:8 *530:B 0.000154046
*RES
1 *594:Q *105:8 8.295 
2 *105:8 *606:A 3.6 
3 *105:8 *105:17 0.2325 
4 *105:17 *105:19 0.795 
5 *105:19 *510:C 4.5375 
6 *105:19 *530:B 9.5775 
7 *105:17 *538:A_N 5.8125 
*END

*D_NET *106 0.00285523
*CONN
*I *605:A I *D sky130_fd_sc_hd__buf_1
*I *604:A I *D sky130_fd_sc_hd__buf_2
*I *595:Q O *D sky130_fd_sc_hd__dfxtp_1
*CAP
1 *605:A 0.000844408
2 *604:A 0.000317994
3 *595:Q 0
4 *106:4 0.0011624
5 *605:A *137:31 4.43871e-06
6 *594:CLK *604:A 0.000115146
7 *594:CLK *605:A 8.95933e-05
8 *594:D *605:A 7.36892e-05
9 *595:CLK *604:A 7.37365e-05
10 *595:D *604:A 2.66935e-05
11 *598:A *605:A 0
12 *90:22 *605:A 9.88446e-05
13 *103:16 *604:A 4.82863e-05
*RES
1 *595:Q *106:4 1.6 
2 *106:4 *604:A 10.19 
3 *106:4 *605:A 16.055 
*END

*D_NET *107 0.0114227
*CONN
*I *533:B I *D sky130_fd_sc_hd__and2b_1
*I *563:A2 I *D sky130_fd_sc_hd__o41a_1
*I *497:A I *D sky130_fd_sc_hd__inv_2
*I *560:B I *D sky130_fd_sc_hd__or4_1
*I *552:B I *D sky130_fd_sc_hd__nor2_2
*I *510:A I *D sky130_fd_sc_hd__nor4b_1
*I *511:A I *D sky130_fd_sc_hd__or4b_4
*I *549:D I *D sky130_fd_sc_hd__and4bb_1
*I *534:B I *D sky130_fd_sc_hd__nand4_1
*I *596:Q O *D sky130_fd_sc_hd__dfxtp_2
*CAP
1 *533:B 1.20605e-05
2 *563:A2 0
3 *497:A 0.000280543
4 *560:B 9.7153e-05
5 *552:B 0
6 *510:A 2.18567e-05
7 *511:A 0.000145671
8 *549:D 3.38751e-05
9 *534:B 0
10 *596:Q 0.000152978
11 *107:74 0.000305684
12 *107:72 0.00017906
13 *107:70 0.00061391
14 *107:64 0.00104212
15 *107:60 0.00131498
16 *107:27 0.00124474
17 *107:21 0.000399961
18 *107:10 0.000359279
19 *497:A *129:14 5.50989e-05
20 *497:A *129:18 4.18603e-06
21 *511:A *510:D_N 1.88656e-05
22 *511:A *511:D_N 0.000127367
23 *511:A *528:A 8.65905e-05
24 *511:A *133:78 4.43871e-06
25 *511:A *136:12 8.65905e-05
26 *511:A *136:25 8.12469e-05
27 *511:A *137:10 7.79032e-05
28 *511:A *137:31 0.000199833
29 *533:B *109:24 4.66108e-05
30 *533:B *133:66 3.57349e-05
31 *560:B *560:A 3.37159e-05
32 *107:10 *534:C 9.50342e-06
33 *107:10 *136:58 9.50342e-06
34 *107:21 *534:C 6.28498e-05
35 *107:21 *542:A_N 1.0183e-05
36 *107:21 *133:47 7.25036e-05
37 *107:21 *136:58 5.16348e-05
38 *107:21 *136:69 0.000388508
39 *107:27 *542:A_N 5.65627e-05
40 *107:27 *109:24 0.000197269
41 *107:27 *133:51 4.82919e-05
42 *107:27 *133:66 8.65905e-05
43 *107:60 *542:A_N 4.50017e-05
44 *107:60 *547:A 7.04675e-05
45 *107:60 *563:B1 1.44259e-05
46 *107:64 *563:A1 0.000275548
47 *107:72 *560:A 5.65627e-05
48 *107:74 *560:A 4.43871e-06
49 *107:74 *133:78 0.000188453
50 *107:74 *135:20 7.46537e-05
51 *107:74 *137:10 6.28843e-05
52 *530:B *510:A 8.49205e-05
53 *545:A2 *510:A 4.80285e-05
54 *548:A *107:60 0.000115464
55 *549:B_N *549:D 4.82863e-05
56 *550:A2 *107:27 0
57 *550:A2 *107:60 0
58 *550:A3 *107:27 0.00015829
59 *550:A3 *107:60 8.53113e-06
60 *550:B1 *107:27 2.96553e-05
61 *554:B1 *107:60 4.9968e-05
62 *560:D *107:70 0.000235573
63 *564:B *107:60 7.47036e-05
64 *565:A2 *107:60 9.85367e-05
65 *565:C1 *107:60 0.000278793
66 *566:A2 *107:60 0.000280963
67 *566:A3 *107:60 6.79807e-05
68 *568:C1 *497:A 0
69 *568:C1 *511:A 0
70 *568:C1 *560:B 0
71 *574:A *107:21 0
72 *576:B1 *107:10 1.67266e-05
73 *588:D *107:60 0
74 *596:D *107:10 0
75 *56:8 *107:60 0.0001249
76 *56:14 *107:60 4.16353e-05
77 *60:88 *560:B 0.00011411
78 *60:88 *107:72 0.000116158
79 *60:88 *107:74 5.16418e-05
80 *78:40 *497:A 0
81 *89:48 *107:21 0
82 *89:48 *107:27 5.9308e-05
83 *89:76 *107:60 0.000201442
84 *103:8 *497:A 7.63282e-05
85 *103:16 *497:A 8.83773e-05
86 *103:49 *497:A 0.00010455
*RES
1 *596:Q *107:10 5.61 
2 *107:10 *534:B 3.6 
3 *107:10 *107:21 7.205 
4 *107:21 *107:27 6.995 
5 *107:27 *549:D 4.05 
6 *107:27 *107:60 24.27 
7 *107:60 *107:64 4.605 
8 *107:64 *107:70 7.64 
9 *107:70 *107:72 1.38 
10 *107:72 *107:74 4.185 
11 *107:74 *511:A 8.265 
12 *107:74 *510:A 4.395 
13 *107:72 *552:B 3.6 
14 *107:70 *560:B 5.43 
15 *107:64 *497:A 11.315 
16 *107:60 *563:A2 1.6 
17 *107:21 *533:B 2.05 
*END

*D_NET *108 0.00640741
*CONN
*I *563:A1 I *D sky130_fd_sc_hd__o41a_1
*I *510:D_N I *D sky130_fd_sc_hd__nor4b_1
*I *603:A I *D sky130_fd_sc_hd__clkbuf_2
*I *597:Q O *D sky130_fd_sc_hd__dfxtp_1
*CAP
1 *563:A1 0.000383362
2 *510:D_N 0.000505506
3 *603:A 0
4 *597:Q 0.000137073
5 *108:21 0.00188987
6 *108:12 0.00113807
7 *510:D_N *112:41 0.000430241
8 *510:D_N *137:10 1.88656e-05
9 *108:12 *112:31 0
10 *108:12 *112:41 0
11 *108:12 *133:13 4.82919e-05
12 *108:12 *133:23 0
13 *108:21 *133:13 0.000266453
14 *108:21 *133:47 0.000235573
15 *511:A *510:D_N 1.88656e-05
16 *536:A2 *108:12 2.45897e-05
17 *555:B *563:A1 0
18 *558:A1 *563:A1 0
19 *564:B *563:A1 0
20 *76:8 *108:21 0.000393666
21 *89:33 *108:21 0.000153859
22 *103:8 *563:A1 0.000130721
23 *103:16 *563:A1 0.000148956
24 *103:49 *563:A1 0.000207898
25 *107:64 *563:A1 0.000275548
*RES
1 *597:Q *108:12 7.94 
2 *108:12 *603:A 1.6 
3 *108:12 *108:21 19.7 
4 *108:21 *510:D_N 6.1397 
5 *108:21 *563:A1 11.9625 
*END

*D_NET *109 0.0089754
*CONN
*I *549:A_N I *D sky130_fd_sc_hd__and4bb_1
*I *507:A I *D sky130_fd_sc_hd__inv_2
*I *555:A I *D sky130_fd_sc_hd__or3b_1
*I *616:X O *D sky130_fd_sc_hd__buf_1
*CAP
1 *549:A_N 0.000134818
2 *507:A 8.00566e-05
3 *555:A 0.000192994
4 *616:X 0.00200697
5 *109:24 0.00130577
6 *109:8 0.00317451
7 *507:A *129:80 7.63204e-05
8 *549:A_N *115:36 4.66826e-05
9 *555:A *114:55 0.000382764
10 *555:A *129:80 2.59981e-05
11 *109:8 *112:31 6.6047e-05
12 *109:24 *114:55 0.000427094
13 *109:24 *133:66 0.000101273
14 *533:B *109:24 4.66108e-05
15 *540:A1 *109:24 0
16 *540:A2 *109:8 0.000211748
17 *540:B1 *109:8 2.66586e-05
18 *550:A2 *109:24 0
19 *550:B1 *109:24 0
20 *565:A1 *507:A 0
21 *586:D *109:8 0.00030262
22 *588:D *549:A_N 0.000160658
23 *588:D *109:24 8.53113e-06
24 *76:19 *555:A 0
25 *107:27 *109:24 0.000197269
*RES
1 *616:X *109:8 27.165 
2 *109:8 *109:24 17.875 
3 *109:24 *555:A 7.77 
4 *109:24 *507:A 5.235 
5 *109:8 *549:A_N 6.285 
*END

*D_NET *110 0.00507485
*CONN
*I *619:A I *D sky130_fd_sc_hd__buf_2
*I *526:A I *D sky130_fd_sc_hd__or2_1
*I *585:Q O *D sky130_fd_sc_hd__dfxtp_1
*CAP
1 *619:A 0.000878239
2 *526:A 0.000173298
3 *585:Q 0
4 *110:4 0.00105154
5 *526:A *502:A 0.000110371
6 *526:A *557:B1 0
7 *526:A *585:D 2.66935e-05
8 *526:A *632:A 0
9 *619:A *500:A 0.00012657
10 *619:A *502:A 5.39673e-05
11 *619:A *523:A1 8.65905e-05
12 *619:A *633:A 0.000123225
13 *619:A *634:A 0.000782005
14 *619:A *635:A 2.50602e-05
15 *619:A *643:A 0.00062029
16 *619:A *117:22 0.000215553
17 *619:A *125:6 0.000163199
18 *619:A *152:10 0.000507936
19 *584:D *619:A 0.000130317
*RES
1 *585:Q *110:4 1.6 
2 *110:4 *526:A 8.21 
3 *110:4 *619:A 24.745 
*END

*D_NET *111 0.00791643
*CONN
*I *620:A I *D sky130_fd_sc_hd__buf_2
*I *608:A I *D sky130_fd_sc_hd__dlygate4sd3_1
*I *602:A I *D sky130_fd_sc_hd__clkbuf_2
*I *577:Q O *D sky130_fd_sc_hd__dfxtp_1
*CAP
1 *620:A 0.00161371
2 *608:A 0
3 *602:A 0.0013401
4 *577:Q 0
5 *111:8 0.00141402
6 *111:6 0.00168764
7 *602:A *526:B 0.000210846
8 *602:A *114:55 0.000238566
9 *620:A *509:A_N 0
10 *620:A *526:B 0.000100156
11 *620:A *559:B1 0.000514876
12 *620:A *635:A 0
13 *620:A *636:A 0
14 *620:A *116:10 0
15 *111:8 *509:A_N 0
16 *111:8 *526:B 0.000138551
17 adc_out[5] *620:A 0
18 adc_out[6] *620:A 0
19 *523:B1 *620:A 0.000107415
20 *556:B *602:A 4.60584e-05
21 *99:21 *602:A 0.000504484
*RES
1 *577:Q *111:6 3.6 
2 *111:6 *111:8 1.635 
3 *111:8 *602:A 25.77 
4 *111:8 *608:A 3.6 
5 *111:6 *620:A 35.185 
*END

*D_NET *112 0.0181364
*CONN
*I *536:B1 I *D sky130_fd_sc_hd__o21a_1
*I *506:A I *D sky130_fd_sc_hd__inv_2
*I *513:A1 I *D sky130_fd_sc_hd__o211a_1
*I *621:A I *D sky130_fd_sc_hd__buf_2
*I *586:Q O *D sky130_fd_sc_hd__dfxtp_1
*CAP
1 *536:B1 0
2 *506:A 0.000510866
3 *513:A1 0.00176589
4 *621:A 0.00137055
5 *586:Q 0
6 *112:41 0.00534924
7 *112:31 0.00392826
8 *112:4 0.00222633
9 *506:A *531:A 0.000353264
10 *506:A *531:C 0
11 *506:A *541:B1 0
12 *506:A *567:B1 4.82863e-05
13 *506:A *119:23 4.82863e-05
14 *506:A *136:12 0
15 *513:A1 *513:C1 0
16 *513:A1 *137:53 0.000152088
17 *621:A *622:A 0
18 *621:A *113:31 0.000187404
19 *112:41 *534:A 8.58505e-05
20 *112:41 *129:31 0.000465542
21 *112:41 *129:33 0.000124351
22 *112:41 *136:12 0
23 *112:41 *137:31 1.84258e-05
24 dac_in[2] *621:A 4.82863e-05
25 *510:D_N *112:41 0.000430241
26 *527:A2 *513:A1 5.58515e-05
27 *536:A2 *112:41 3.12639e-05
28 *540:A1 *112:31 0.000250609
29 *540:B1 *112:31 8.65905e-05
30 *544:B *506:A 0.000128101
31 *545:A1 *506:A 0
32 *545:A3 *506:A 6.47594e-05
33 *553:B1 *506:A 0
34 *581:CLK *513:A1 0
35 *581:D *513:A1 0
36 *586:D *112:31 0.000101614
37 *617:A *621:A 3.95724e-05
38 *80:81 *513:A1 5.36264e-05
39 *90:22 *112:41 0
40 *92:12 *506:A 9.44253e-05
41 *94:70 *506:A 5.07439e-05
42 *103:63 *112:31 0
43 *103:63 *112:41 0
44 *108:12 *112:31 0
45 *108:12 *112:41 0
46 *109:8 *112:31 6.6047e-05
*RES
1 *586:Q *112:4 1.6 
2 *112:4 *621:A 27.8 
3 *112:4 *112:31 14.255 
4 *112:31 *112:41 8.9145 
5 *112:41 *513:A1 9.68537 
6 *112:41 *506:A 14.4825 
7 *112:31 *536:B1 3.6 
*END

*D_NET *113 0.0157974
*CONN
*I *505:A I *D sky130_fd_sc_hd__inv_2
*I *622:A I *D sky130_fd_sc_hd__buf_2
*I *515:A1 I *D sky130_fd_sc_hd__o211a_1
*I *587:Q O *D sky130_fd_sc_hd__dfxtp_1
*CAP
1 *505:A 0.000109941
2 *622:A 5.02911e-05
3 *515:A1 0.000473668
4 *587:Q 6.51481e-05
5 *113:31 0.00383147
6 *113:29 0.00445913
7 *113:8 0.00110683
8 *505:A *541:B1 0
9 *505:A *630:A 0
10 *505:A *116:35 8.49205e-05
11 *113:29 *499:A 0
12 *113:29 *541:B1 0
13 *113:31 *623:A 1.77595e-05
14 *113:31 *116:35 0.00329132
15 dac_in[2] *113:31 8.2265e-06
16 *515:B1 *515:A1 0.000113271
17 *529:B *515:A1 7.30547e-05
18 *529:B *113:29 0.000154947
19 *541:A2 *113:29 0.000235394
20 *556:B *113:29 5.42473e-05
21 *561:B *113:29 0.000256978
22 *562:B1 *113:29 7.8798e-05
23 *587:CLK *515:A1 8.8266e-05
24 *587:D *515:A1 0
25 *587:D *113:8 9.66021e-05
26 *587:D *113:29 0
27 *591:D *113:29 4.65643e-05
28 *621:A *622:A 0
29 *621:A *113:31 0.000187404
30 *644:A *515:A1 0
31 *644:A *113:8 4.82863e-05
32 *644:A *113:29 0.000154947
33 *60:51 *113:29 6.06752e-05
34 *80:15 *515:A1 4.82919e-05
35 *80:40 *515:A1 0.000365268
36 *90:22 *515:A1 0
37 *90:59 *113:29 0.000175009
38 *99:27 *113:29 0
39 *104:10 *515:A1 2.05641e-05
40 *104:31 *515:A1 4.01019e-05
*RES
1 *587:Q *113:8 5.085 
2 *113:8 *515:A1 14.965 
3 *113:8 *113:29 15.365 
4 *113:29 *113:31 49.44 
5 *113:31 *622:A 2.47 
6 *113:29 *505:A 7.265 
*END

*D_NET *114 0.016938
*CONN
*I *546:B1 I *D sky130_fd_sc_hd__o41a_1
*I *504:A I *D sky130_fd_sc_hd__inv_2
*I *517:A1 I *D sky130_fd_sc_hd__o211a_1
*I *623:A I *D sky130_fd_sc_hd__buf_2
*I *588:Q O *D sky130_fd_sc_hd__dfxtp_1
*CAP
1 *546:B1 0
2 *504:A 0.000402208
3 *517:A1 0.000893203
4 *623:A 0.0003366
5 *588:Q 0.000172569
6 *114:55 0.00364892
7 *114:37 0.00389752
8 *114:6 0.00205318
9 *504:A *117:22 2.59981e-05
10 *517:A1 *521:A1 0.000694865
11 *517:A1 *116:10 2.30292e-05
12 *517:A1 *137:104 0.000185626
13 *114:37 *547:C_N 0.000132842
14 *114:37 *115:36 6.57653e-06
15 *114:55 *519:A1 0
16 *114:55 *129:8 2.87826e-05
17 *114:55 *129:14 0.000341486
18 *114:55 *133:66 2.23407e-05
19 *114:55 *134:39 9.14049e-05
20 *517:A2 *517:A1 0.000183043
21 *521:B1 *517:A1 1.08758e-05
22 *538:A_N *114:55 2.49909e-05
23 *540:A2 *114:37 4.26316e-05
24 *550:A2 *114:37 4.82919e-05
25 *555:A *114:55 0.000382764
26 *556:B *114:55 0.000221129
27 *558:A2 *114:55 0.000124007
28 *565:A1 *114:37 0
29 *565:A1 *114:55 0
30 *565:B1 *114:37 5.83373e-05
31 *588:D *114:37 0.000280642
32 *590:CLK *517:A1 4.82919e-05
33 *590:D *517:A1 0.00030095
34 *601:A *114:55 0.000115762
35 *602:A *114:55 0.000238566
36 *56:14 *114:37 0.000502066
37 *80:115 *517:A1 0.00034058
38 *94:10 *114:37 3.69334e-05
39 *94:10 *114:55 1.01661e-05
40 *99:8 *114:55 5.62169e-05
41 *99:21 *114:55 0.000252141
42 *104:10 *114:55 0
43 *104:79 *517:A1 9.60974e-05
44 *104:110 *517:A1 0.000161529
45 *104:114 *504:A 0
46 *104:125 *504:A 0
47 *109:24 *114:55 0.000427094
48 *113:31 *623:A 1.77595e-05
*RES
1 *588:Q *114:6 3.43 
2 *114:6 *623:A 11 
3 *114:6 *114:37 23.915 
4 *114:37 *114:55 42.97 
5 *114:55 *517:A1 28.885 
6 *114:55 *504:A 9.57 
7 *114:37 *546:B1 3.6 
*END

*D_NET *115 0.0142288
*CONN
*I *624:A I *D sky130_fd_sc_hd__buf_2
*I *503:A I *D sky130_fd_sc_hd__inv_2
*I *519:A1 I *D sky130_fd_sc_hd__o211a_1
*I *589:Q O *D sky130_fd_sc_hd__dfxtp_1
*CAP
1 *624:A 0.000177933
2 *503:A 0.000154815
3 *519:A1 0.000569087
4 *589:Q 0.00027599
5 *115:36 0.00436485
6 *115:8 0.00409488
7 *503:A *509:B 9.37731e-05
8 *503:A *527:C1 1.32974e-05
9 *503:A *551:B1 3.18219e-05
10 *503:A *557:B1 0.000122337
11 *519:A1 *509:B 0.000486136
12 *519:A1 *513:C1 4.93879e-05
13 *519:A1 *132:29 0
14 *519:A1 *137:53 2.49909e-05
15 *519:A1 *137:79 5.2711e-05
16 *519:A1 *137:87 0.00015896
17 *115:36 *509:A_N 9.66021e-05
18 *115:36 *527:C1 3.66077e-05
19 *115:36 *542:B_N 3.85569e-05
20 *115:36 *542:C 0.000122337
21 *115:36 *542:D 4.99619e-05
22 *115:36 *551:B1 0.000298554
23 *115:36 *577:CLK 1.61831e-05
24 *115:36 *129:82 0.000148977
25 *527:A2 *503:A 7.5458e-05
26 *527:B1 *503:A 0.000122337
27 *549:A_N *115:36 4.66826e-05
28 *549:B_N *115:36 0.000387008
29 *549:C *115:36 0.000369484
30 *558:A3 *115:36 4.01548e-05
31 *561:A *115:36 0.000452563
32 *565:A1 *115:36 1.7635e-05
33 *581:D *519:A1 2.97004e-06
34 *60:51 *115:36 1.72991e-05
35 *60:70 *115:36 1.42507e-05
36 *80:81 *519:A1 7.23602e-05
37 *94:42 *115:36 0.000748731
38 *94:70 *115:36 0.000190353
39 *103:59 *624:A 0
40 *103:59 *115:8 0.000186204
41 *103:59 *115:36 0
42 *103:61 *115:36 0
43 *104:114 *503:A 0
44 *104:114 *519:A1 0
45 *114:37 *115:36 6.57653e-06
46 *114:55 *519:A1 0
*RES
1 *589:Q *115:8 7.155 
2 *115:8 *115:36 40.2713 
3 *115:36 *519:A1 17.905 
4 *115:36 *503:A 7.65 
5 *115:8 *624:A 6.51 
*END

*D_NET *116 0.0139786
*CONN
*I *521:A1 I *D sky130_fd_sc_hd__o211a_1
*I *625:A I *D sky130_fd_sc_hd__buf_2
*I *502:A I *D sky130_fd_sc_hd__inv_2
*I *590:Q O *D sky130_fd_sc_hd__dfxtp_1
*CAP
1 *521:A1 0.000488858
2 *625:A 0
3 *502:A 0.000238639
4 *590:Q 0
5 *116:35 0.00145444
6 *116:10 0.00197529
7 *116:4 0.000771067
8 *502:A *585:D 0.00015896
9 *502:A *117:22 0.000278103
10 *116:10 *509:A_N 6.36578e-05
11 *116:10 *526:B 0
12 *116:10 *632:A 0.000179015
13 *116:35 *626:A 0.000144191
14 *116:35 *632:A 0.000204456
15 *116:35 *118:23 0.000234786
16 *116:35 *118:34 0.00343252
17 *505:A *116:35 8.49205e-05
18 *517:A1 *521:A1 0.000694865
19 *517:A1 *116:10 2.30292e-05
20 *521:B1 *521:A1 5.20897e-05
21 *526:A *502:A 0.000110371
22 *527:A2 *116:10 0
23 *527:A2 *116:35 0
24 *610:A *116:10 4.40812e-05
25 *619:A *502:A 5.39673e-05
26 *620:A *116:10 0
27 *113:31 *116:35 0.00329132
*RES
1 *590:Q *116:4 1.6 
2 *116:4 *116:10 7.4 
3 *116:10 *502:A 8.775 
4 *116:10 *116:35 49.625 
5 *116:35 *625:A 1.6 
6 *116:4 *521:A1 10.705 
*END

*D_NET *117 0.00982664
*CONN
*I *626:A I *D sky130_fd_sc_hd__buf_2
*I *523:A1 I *D sky130_fd_sc_hd__o211a_1
*I *501:A I *D sky130_fd_sc_hd__inv_2
*I *591:Q O *D sky130_fd_sc_hd__dfxtp_1
*CAP
1 *626:A 0.00160274
2 *523:A1 8.7717e-05
3 *501:A 0
4 *591:Q 0
5 *117:22 0.00108245
6 *117:6 0.00259748
7 *523:A1 *525:C1 1.73877e-05
8 *523:A1 *559:B1 0.00011379
9 *626:A *541:B1 0.000393029
10 *626:A *630:A 0.000113237
11 *626:A *631:A 0
12 *626:A *118:23 0.000393029
13 *626:A *118:34 0.00164006
14 *117:22 *527:A1 0.000513685
15 *117:22 *585:D 0.000200117
16 *117:22 *631:A 0
17 *502:A *117:22 0.000278103
18 *504:A *117:22 2.59981e-05
19 *584:CLK *523:A1 0.000155227
20 *585:CLK *117:22 0.000115707
21 *610:A *117:22 5.05437e-05
22 *619:A *523:A1 8.65905e-05
23 *619:A *117:22 0.000215553
24 *104:125 *117:22 0
25 *116:35 *626:A 0.000144191
*RES
1 *591:Q *117:6 3.6 
2 *117:6 *117:22 19.865 
3 *117:22 *501:A 1.6 
4 *117:22 *523:A1 8.285 
5 *117:6 *626:A 36.66 
*END

*D_NET *118 0.0116203
*CONN
*I *500:A I *D sky130_fd_sc_hd__inv_2
*I *525:A1 I *D sky130_fd_sc_hd__o211a_1
*I *627:A I *D sky130_fd_sc_hd__buf_2
*I *563:B1 I *D sky130_fd_sc_hd__o41a_1
*I *592:Q O *D sky130_fd_sc_hd__dfxtp_1
*CAP
1 *500:A 0.000430572
2 *525:A1 1.88809e-05
3 *627:A 0
4 *563:B1 0.000282486
5 *592:Q 6.31141e-05
6 *118:34 0.00175145
7 *118:23 0.00149088
8 *118:8 0.000534484
9 *500:A *524:A 0.000318091
10 *500:A *634:A 0.000211311
11 *118:34 *525:C1 0.0001249
12 dac_in_n[2] *118:34 6.54766e-05
13 dac_in_n[3] *118:34 3.45679e-05
14 dac_in_n[5] *500:A 7.81829e-05
15 *525:B1 *500:A 0.000134314
16 *525:B1 *525:A1 5.4155e-06
17 *525:B1 *118:34 4.92062e-05
18 *563:A4 *563:B1 8.7152e-06
19 *565:C1 *563:B1 0
20 *566:A1 *563:B1 0
21 *592:D *563:B1 0
22 *619:A *500:A 0.00012657
23 *626:A *118:23 0.000393029
24 *626:A *118:34 0.00164006
25 *89:76 *563:B1 0.000103327
26 *103:51 *118:8 7.35813e-05
27 *107:60 *563:B1 1.44259e-05
28 *116:35 *118:23 0.000234786
29 *116:35 *118:34 0.00343252
*RES
1 *592:Q *118:8 4.74 
2 *118:8 *563:B1 8.295 
3 *118:8 *118:23 7.445 
4 *118:23 *627:A 1.6 
5 *118:23 *118:34 41.625 
6 *118:34 *525:A1 1.96 
7 *118:34 *500:A 15.545 
*END

*D_NET *119 0.00461975
*CONN
*I *499:A I *D sky130_fd_sc_hd__inv_2
*I *609:A I *D sky130_fd_sc_hd__dlygate4sd3_1
*I *628:A I *D sky130_fd_sc_hd__buf_2
*I *593:Q O *D sky130_fd_sc_hd__dfxtp_1
*CAP
1 *499:A 0.00090928
2 *609:A 0
3 *628:A 0.00013017
4 *593:Q 0
5 *119:23 0.00147021
6 *119:4 0.000691104
7 *499:A *527:C1 0.000117568
8 *499:A *557:B1 0.00030131
9 *499:A *567:B1 2.26018e-05
10 *628:A *120:16 0
11 *119:23 *567:B1 0.000257891
12 *506:A *119:23 4.82863e-05
13 *553:B1 *119:23 0.000104005
14 *557:A1 *499:A 8.8266e-05
15 *568:B1 *119:23 0.000172785
16 *591:D *499:A 0.000277223
17 *591:D *119:23 2.0514e-05
18 *99:27 *499:A 8.53113e-06
19 *113:29 *499:A 0
*RES
1 *593:Q *119:4 1.6 
2 *119:4 *628:A 7.49 
3 *119:4 *119:23 10.59 
4 *119:23 *609:A 1.6 
5 *119:23 *499:A 19.055 
*END

*D_NET *120 0.0152622
*CONN
*I *527:C1 I *D sky130_fd_sc_hd__o211a_1
*I *607:A I *D sky130_fd_sc_hd__buf_2
*I *617:X O *D sky130_fd_sc_hd__buf_1
*CAP
1 *527:C1 0.00173684
2 *607:A 0.000279139
3 *617:X 6.0288e-05
4 *120:16 0.00236173
5 *120:14 0.00464287
6 *120:10 0.00435741
7 *607:A *531:C 0
8 *607:A *538:B 0
9 *607:A *135:20 0.0003773
10 *607:A *135:33 5.39961e-05
11 dac_in[0] *120:10 0
12 dac_in[7] *120:16 0
13 *499:A *527:C1 0.000117568
14 *503:A *527:C1 1.32974e-05
15 *527:A2 *527:C1 0
16 *527:B1 *527:C1 7.28749e-05
17 *538:A_N *607:A 4.18603e-06
18 *551:A1 *120:16 2.31046e-05
19 *553:B1 *120:16 0
20 *561:A *527:C1 0.000177088
21 *567:A1 *120:16 5.23093e-05
22 *598:A *607:A 0
23 *628:A *120:16 0
24 *60:88 *607:A 3.17448e-05
25 *60:88 *120:16 3.3509e-05
26 *78:59 *527:C1 0.000137622
27 *92:12 *607:A 0
28 *94:42 *527:C1 9.8635e-05
29 *94:46 *607:A 2.5679e-05
30 *94:46 *120:16 1.71416e-05
31 *94:70 *527:C1 0.000477331
32 *104:114 *527:C1 1.32974e-05
33 *104:125 *527:C1 6.05917e-05
34 *115:36 *527:C1 3.66077e-05
*RES
1 *617:X *120:10 6.47 
2 *120:10 *120:14 48.68 
3 *120:14 *120:16 5.8425 
4 *120:16 *607:A 9.6975 
5 *120:16 *527:C1 10.1152 
*END

*D_NET *121 0.000225819
*CONN
*I *629:A I *D sky130_fd_sc_hd__buf_2
*I *506:Y O *D sky130_fd_sc_hd__inv_2
*CAP
1 *629:A 0.000112909
2 *506:Y 0.000112909
3 *629:A *541:B1 0
*RES
1 *506:Y *629:A 8.835 
*END

*D_NET *122 0.00257182
*CONN
*I *630:A I *D sky130_fd_sc_hd__buf_2
*I *541:B1 I *D sky130_fd_sc_hd__a21o_1
*I *505:Y O *D sky130_fd_sc_hd__inv_2
*CAP
1 *630:A 0.000120437
2 *541:B1 0.000649871
3 *505:Y 0
4 *122:4 0.000770308
5 *541:B1 *567:B1 0.000179776
6 dac_in_n[0] *541:B1 0
7 dac_in_n[1] *630:A 4.43871e-06
8 *505:A *541:B1 0
9 *505:A *630:A 0
10 *506:A *541:B1 0
11 *541:A1 *541:B1 0.00012657
12 *544:A *541:B1 2.06509e-05
13 *562:A2 *541:B1 8.01608e-05
14 *562:A3 *541:B1 4.77437e-05
15 *626:A *541:B1 0.000393029
16 *626:A *630:A 0.000113237
17 *629:A *541:B1 0
18 *78:67 *541:B1 6.55948e-05
19 *113:29 *541:B1 0
*RES
1 *505:Y *122:4 1.6 
2 *122:4 *541:B1 17.285 
3 *122:4 *630:A 7.355 
*END

*D_NET *123 0.000553146
*CONN
*I *631:A I *D sky130_fd_sc_hd__buf_2
*I *504:Y O *D sky130_fd_sc_hd__inv_2
*CAP
1 *631:A 0.000226025
2 *504:Y 0.000226025
3 *585:CLK *631:A 2.75229e-05
4 *591:CLK *631:A 7.35729e-05
5 *626:A *631:A 0
6 *117:22 *631:A 0
*RES
1 *504:Y *631:A 10.32 
*END

*D_NET *124 0.00597757
*CONN
*I *632:A I *D sky130_fd_sc_hd__buf_2
*I *551:B1 I *D sky130_fd_sc_hd__a21oi_1
*I *503:Y O *D sky130_fd_sc_hd__inv_2
*CAP
1 *632:A 0.000419834
2 *551:B1 0.000951907
3 *503:Y 0
4 *124:4 0.00137174
5 *551:B1 *559:B1 0.00099306
6 *551:B1 *567:B1 6.35864e-05
7 *551:B1 *577:CLK 0.000136037
8 *551:B1 *636:A 0.000148977
9 *632:A *526:B 0
10 *632:A *585:D 3.39064e-05
11 *632:A *636:A 0.000312176
12 *503:A *551:B1 3.18219e-05
13 *526:A *632:A 0
14 *541:A1 *551:B1 1.83756e-05
15 *541:A2 *551:B1 1.7902e-05
16 *551:A2 *551:B1 4.00541e-06
17 *557:A1 *551:B1 0.000289288
18 *561:A *551:B1 6.67706e-05
19 *562:A2 *551:B1 0.000155653
20 *562:A3 *551:B1 0.000118081
21 *562:B1 *551:B1 0.000153892
22 *591:D *551:B1 8.53113e-06
23 *115:36 *551:B1 0.000298554
24 *116:10 *632:A 0.000179015
25 *116:35 *632:A 0.000204456
*RES
1 *503:Y *124:4 1.6 
2 *124:4 *551:B1 31.05 
3 *124:4 *632:A 13.415 
*END

*D_NET *125 0.00479239
*CONN
*I *633:A I *D sky130_fd_sc_hd__buf_2
*I *557:B1 I *D sky130_fd_sc_hd__a21o_1
*I *502:Y O *D sky130_fd_sc_hd__inv_2
*CAP
1 *633:A 0.000198619
2 *557:B1 0.000557259
3 *502:Y 0.000104695
4 *125:6 0.000860573
5 *557:B1 *525:C1 0
6 *557:B1 *526:B 0
7 *557:B1 *567:B1 0.000772613
8 *557:B1 *636:A 0.00107135
9 *557:B1 *137:113 0
10 *633:A *525:C1 0.000249935
11 *499:A *557:B1 0.00030131
12 *503:A *557:B1 0.000122337
13 *526:A *557:B1 0
14 *527:B1 *557:B1 0.000267274
15 *619:A *633:A 0.000123225
16 *619:A *125:6 0.000163199
17 *60:70 *557:B1 0
*RES
1 *502:Y *125:6 3.085 
2 *125:6 *557:B1 24.26 
3 *125:6 *633:A 9.65 
*END

*D_NET *126 0.00851841
*CONN
*I *634:A I *D sky130_fd_sc_hd__buf_2
*I *559:B1 I *D sky130_fd_sc_hd__a21o_1
*I *501:Y O *D sky130_fd_sc_hd__inv_2
*CAP
1 *634:A 0.00072451
2 *559:B1 0.00173939
3 *501:Y 0
4 *126:4 0.0024639
5 *559:B1 *509:A_N 0.000137286
6 *559:B1 *509:B 4.66108e-05
7 *559:B1 *525:C1 5.84456e-05
8 *559:B1 *577:CLK 7.98925e-05
9 *559:B1 *137:113 1.07797e-05
10 *634:A *524:B 0
11 *634:A *611:A 4.99619e-05
12 *634:A *635:A 0
13 dac_in_n[5] *634:A 5.05521e-05
14 *500:A *634:A 0.000211311
15 *523:A1 *559:B1 0.00011379
16 *523:B1 *559:B1 0.000189886
17 *551:B1 *559:B1 0.00099306
18 *558:A3 *559:B1 7.23602e-05
19 *561:B *559:B1 0
20 *584:CLK *559:B1 7.90356e-06
21 *619:A *634:A 0.000782005
22 *620:A *559:B1 0.000514876
23 *60:70 *559:B1 0.00011381
24 *80:130 *559:B1 0.000114492
25 *99:27 *559:B1 3.09128e-05
26 *104:88 *559:B1 1.26626e-05
*RES
1 *501:Y *126:4 1.6 
2 *126:4 *559:B1 36.015 
3 *126:4 *634:A 22.245 
*END

*D_NET *127 0.000705438
*CONN
*I *635:A I *D sky130_fd_sc_hd__buf_2
*I *500:Y O *D sky130_fd_sc_hd__inv_2
*CAP
1 *635:A 0.00029863
2 *500:Y 0.00029863
3 *635:A *611:A 0
4 *635:A *643:A 8.31173e-05
5 *619:A *635:A 2.50602e-05
6 *620:A *635:A 0
7 *634:A *635:A 0
*RES
1 *500:Y *635:A 11.355 
*END

*D_NET *128 0.0113805
*CONN
*I *636:A I *D sky130_fd_sc_hd__buf_2
*I *567:B1 I *D sky130_fd_sc_hd__a21oi_1
*I *499:Y O *D sky130_fd_sc_hd__inv_2
*CAP
1 *636:A 0.00209918
2 *567:B1 0.00105181
3 *499:Y 0
4 *128:4 0.00315099
5 *636:A *522:A 5.90074e-05
6 *636:A *523:C1 2.75145e-05
7 *636:A *642:A 0.00050979
8 *636:A *151:8 0.000191243
9 adc_out[6] *636:A 3.12569e-05
10 adc_out[7] *636:A 0.000102123
11 *499:A *567:B1 2.26018e-05
12 *506:A *567:B1 4.82863e-05
13 *525:A2 *636:A 0.000118081
14 *541:B1 *567:B1 0.000179776
15 *551:B1 *567:B1 6.35864e-05
16 *551:B1 *636:A 0.000148977
17 *553:B1 *567:B1 0.000161529
18 *557:A1 *567:B1 6.19618e-05
19 *557:A2 *567:B1 2.30292e-05
20 *557:B1 *567:B1 0.000772613
21 *557:B1 *636:A 0.00107135
22 *558:A3 *567:B1 0.000313852
23 *562:A1 *567:B1 0.000229536
24 *562:A3 *567:B1 5.10587e-05
25 *583:CLK *636:A 1.12578e-05
26 *583:D *636:A 0.000151967
27 *591:D *567:B1 0
28 *620:A *636:A 0
29 *632:A *636:A 0.000312176
30 *60:70 *567:B1 0.000158072
31 *80:130 *636:A 0
32 *119:23 *567:B1 0.000257891
*RES
1 *499:Y *128:4 1.6 
2 *128:4 *567:B1 27.275 
3 *128:4 *636:A 39.59 
*END

*D_NET *129 0.00974958
*CONN
*I *531:A I *D sky130_fd_sc_hd__and3_1
*I *538:C I *D sky130_fd_sc_hd__and3b_1
*I *530:A I *D sky130_fd_sc_hd__nand2_1
*I *539:D1 I *D sky130_fd_sc_hd__o2111a_1
*I *547:C_N I *D sky130_fd_sc_hd__nor3b_2
*I *542:D I *D sky130_fd_sc_hd__and4bb_1
*I *571:A1 I *D sky130_fd_sc_hd__a21o_1
*I *532:A I *D sky130_fd_sc_hd__nand3_1
*I *534:A I *D sky130_fd_sc_hd__nand4_1
*I *569:A I *D sky130_fd_sc_hd__or2_1
*I *602:X O *D sky130_fd_sc_hd__clkbuf_2
*CAP
1 *531:A 0.000285947
2 *538:C 0
3 *530:A 0
4 *539:D1 0
5 *547:C_N 0.000113843
6 *542:D 7.77117e-06
7 *571:A1 2.16657e-05
8 *532:A 7.80528e-06
9 *534:A 0.000146841
10 *569:A 0
11 *602:X 0.000123129
12 *129:82 0.000171238
13 *129:80 0.000756657
14 *129:61 0.000728699
15 *129:33 0.000295889
16 *129:31 0.000702439
17 *129:18 0.000826804
18 *129:14 0.00084972
19 *129:8 0.000625538
20 *129:6 0.000450501
21 *531:A *531:C 1.70906e-05
22 *531:A *538:B 0.000128444
23 *532:A *136:58 1.00941e-05
24 *534:A *534:C 0.00012657
25 *534:A *134:16 0.00022558
26 *547:C_N *547:B 0
27 *571:A1 *136:58 6.15576e-06
28 *129:80 *498:A 6.65605e-05
29 *129:80 *563:A3 8.40269e-05
30 *129:80 *571:B1 2.8867e-05
31 *129:80 *134:93 0
32 *129:80 *136:58 2.53191e-06
33 *129:82 *498:A 3.96653e-05
34 *497:A *129:14 5.50989e-05
35 *497:A *129:18 4.18603e-06
36 *506:A *531:A 0.000353264
37 *507:A *129:80 7.63204e-05
38 *538:A_N *129:14 4.66108e-05
39 *539:A1 *129:80 8.8266e-05
40 *549:C *542:D 4.82863e-05
41 *549:C *129:82 4.66108e-05
42 *555:A *129:80 2.59981e-05
43 *555:C_N *129:80 0
44 *562:A2 *531:A 0.000107094
45 *563:A4 *129:80 0
46 *565:B1 *547:C_N 2.37321e-05
47 *565:B1 *129:82 7.57202e-05
48 *568:C1 *129:14 0
49 *568:C1 *129:18 0
50 *573:A *534:A 3.09164e-05
51 *573:A *129:80 0
52 *573:B *532:A 4.55864e-06
53 *573:B *534:A 2.95708e-05
54 *573:B *129:80 0
55 *574:C *534:A 0.000214272
56 *76:19 *129:80 0
57 *78:10 *129:80 0
58 *89:27 *129:80 0
59 *89:76 *129:80 0
60 *92:12 *531:A 0.000112306
61 *94:10 *547:C_N 2.66935e-05
62 *99:8 *129:6 4.66826e-05
63 *99:8 *129:8 5.83121e-06
64 *99:21 *129:6 9.46379e-05
65 *103:16 *129:18 0
66 *103:16 *129:31 5.05716e-06
67 *112:41 *534:A 8.58505e-05
68 *112:41 *129:31 0.000465542
69 *112:41 *129:33 0.000124351
70 *114:37 *547:C_N 0.000132842
71 *114:55 *129:8 2.87826e-05
72 *114:55 *129:14 0.000341486
73 *115:36 *542:D 4.99619e-05
74 *115:36 *129:82 0.000148977
*RES
1 *602:X *129:6 3.775 
2 *129:6 *129:8 0.795 
3 *129:8 *129:14 12.02 
4 *129:14 *129:18 3.45 
5 *129:18 *569:A 3.6 
6 *129:18 *129:31 1.93583 
7 *129:31 *129:33 0.329333 
8 *129:33 *534:A 8.0103 
9 *129:33 *532:A 4.3325 
10 *129:31 *129:61 0.5 
11 *129:61 *571:A1 3.8325 
12 *129:61 *129:80 13.4675 
13 *129:80 *129:82 1.83 
14 *129:82 *542:D 2.05 
15 *129:82 *547:C_N 8 
16 *129:80 *539:D1 1.6 
17 *129:14 *530:A 3.6 
18 *129:8 *538:C 1.6 
19 *129:6 *531:A 12.305 
*END

*D_NET *130 0.00382445
*CONN
*I *524:B I *D sky130_fd_sc_hd__or2_1
*I *522:B I *D sky130_fd_sc_hd__or2_1
*I *520:B I *D sky130_fd_sc_hd__or2_1
*I *516:B I *D sky130_fd_sc_hd__or2_1
*I *618:X O *D sky130_fd_sc_hd__buf_1
*CAP
1 *524:B 0.000358139
2 *522:B 0
3 *520:B 2.11983e-05
4 *516:B 0.000160666
5 *618:X 0.000276107
6 *130:32 0.000472706
7 *130:21 0.000422078
8 *130:8 0.000723087
9 *516:B *516:A 4.82863e-05
10 *520:B *520:A 4.82919e-05
11 *524:B *522:A 7.07801e-05
12 *130:8 *640:A 0.000177849
13 *130:8 *137:87 0.000313852
14 *130:8 *137:104 8.49205e-05
15 *130:21 *150:12 0
16 *130:32 *522:A 5.53249e-06
17 *525:A2 *524:B 0
18 *582:D *130:21 0
19 *584:CLK *524:B 0
20 *584:D *524:B 0.000141606
21 *634:A *524:B 0
22 *80:98 *130:8 0.000426195
23 *80:115 *130:8 7.3151e-05
24 *104:79 *516:B 0
25 *104:79 *130:21 0
26 *104:88 *524:B 0
27 *104:88 *130:21 0
28 *104:88 *130:32 0
*RES
1 *618:X *130:8 10.95 
2 *130:8 *516:B 6.195 
3 *130:8 *130:21 4.695 
4 *130:21 *520:B 4.05 
5 *130:21 *130:32 1.89 
6 *130:32 *522:B 3.6 
7 *130:32 *524:B 10.08 
*END

*D_NET *131 0.00466872
*CONN
*I *637:A I *D sky130_fd_sc_hd__buf_2
*I *512:A I *D sky130_fd_sc_hd__or2_1
*I *578:Q O *D sky130_fd_sc_hd__dfxtp_1
*CAP
1 *637:A 0.000961513
2 *512:A 0.000130479
3 *578:Q 6.80445e-05
4 *131:10 0.00116004
5 *512:A *638:A 0.000271482
6 *637:A *638:A 0.00203012
7 *131:10 *132:29 4.7043e-05
*RES
1 *578:Q *131:10 6.98 
2 *131:10 *512:A 4.48 
3 *131:10 *637:A 23.11 
*END

*D_NET *132 0.00535798
*CONN
*I *514:B I *D sky130_fd_sc_hd__or2_1
*I *526:B I *D sky130_fd_sc_hd__or2_1
*I *618:A I *D sky130_fd_sc_hd__buf_1
*I *518:B I *D sky130_fd_sc_hd__or2_1
*I *512:B I *D sky130_fd_sc_hd__or2_1
*I *644:X O *D sky130_fd_sc_hd__buf_1
*CAP
1 *514:B 0
2 *526:B 0.000423894
3 *618:A 0
4 *518:B 9.73191e-06
5 *512:B 0
6 *644:X 0.000275142
7 *132:31 9.73191e-06
8 *132:29 0.000879792
9 *132:18 0.0011466
10 *132:12 0.000965847
11 *518:B *518:A 4.82863e-05
12 *132:12 *514:A 4.82919e-05
13 *132:12 *142:10 0
14 *132:18 *514:A 0.000154196
15 *132:18 *638:A 0.000764991
16 *132:29 *517:C1 0
17 *132:29 *638:A 8.65905e-05
18 *132:29 *149:12 0
19 *513:B1 *132:29 0
20 *515:B1 *132:12 0
21 *519:A1 *132:29 0
22 *557:B1 *526:B 0
23 *579:D *132:12 0
24 *581:CLK *132:29 0
25 *581:D *132:29 0
26 *602:A *526:B 0.000210846
27 *620:A *526:B 0.000100156
28 *632:A *526:B 0
29 *80:98 *518:B 4.82863e-05
30 *111:8 *526:B 0.000138551
31 *116:10 *526:B 0
32 *131:10 *132:29 4.7043e-05
*RES
1 *644:X *132:12 9.98 
2 *132:12 *132:18 10.14 
3 *132:18 *512:B 1.6 
4 *132:18 *132:29 9.53 
5 *132:29 *132:31 2 
6 *132:31 *518:B 2.05 
7 *132:31 *618:A 1.6 
8 *132:29 *526:B 11.865 
9 *132:12 *514:B 1.6 
*END

*D_NET *133 0.0102542
*CONN
*I *542:A_N I *D sky130_fd_sc_hd__and4bb_1
*I *546:A1 I *D sky130_fd_sc_hd__o41a_1
*I *552:A I *D sky130_fd_sc_hd__nor2_2
*I *560:A I *D sky130_fd_sc_hd__or4_1
*I *543:A I *D sky130_fd_sc_hd__or4_1
*I *511:D_N I *D sky130_fd_sc_hd__or4b_4
*I *533:A_N I *D sky130_fd_sc_hd__and2b_1
*I *535:A I *D sky130_fd_sc_hd__or2_1
*I *575:A I *D sky130_fd_sc_hd__nand2_1
*I *536:A1 I *D sky130_fd_sc_hd__o21a_1
*I *603:X O *D sky130_fd_sc_hd__clkbuf_2
*CAP
1 *542:A_N 0.000186534
2 *546:A1 3.52212e-05
3 *552:A 0
4 *560:A 0.000231557
5 *543:A 2.12116e-05
6 *511:D_N 0.000110777
7 *533:A_N 0
8 *535:A 0
9 *575:A 0.000197491
10 *536:A1 2.9853e-05
11 *603:X 0
12 *133:78 0.000335386
13 *133:76 0.000434954
14 *133:74 0.000436398
15 *133:66 0.000703428
16 *133:51 0.000253007
17 *133:47 0.000349482
18 *133:23 0.000439953
19 *133:13 0.000523488
20 *133:4 0.000169129
21 *511:D_N *528:A 2.30292e-05
22 *511:D_N *543:C 4.7228e-05
23 *511:D_N *136:25 0.000122337
24 *542:A_N *134:54 9.29751e-06
25 *542:A_N *136:69 0
26 *560:A *135:33 1.56428e-05
27 *133:66 *134:39 0.000116165
28 *133:66 *134:43 4.82919e-05
29 *133:66 *134:80 5.68717e-05
30 *133:66 *134:93 0.00016063
31 *133:66 *136:69 1.44259e-05
32 *133:74 *134:80 0
33 *511:A *511:D_N 0.000127367
34 *511:A *133:78 4.43871e-06
35 *528:B *511:D_N 1.61831e-05
36 *530:B *543:A 4.82863e-05
37 *533:B *133:66 3.57349e-05
38 *536:A2 *575:A 8.49205e-05
39 *540:A2 *133:66 4.16445e-05
40 *546:A4 *546:A1 8.40269e-05
41 *546:A4 *133:66 9.07709e-05
42 *546:A4 *133:74 0.000310728
43 *548:A *542:A_N 8.49205e-05
44 *549:C *542:A_N 8.49205e-05
45 *550:A3 *542:A_N 0.000159964
46 *555:C_N *133:74 0.000113247
47 *558:A1 *133:74 0.000799875
48 *560:B *560:A 3.37159e-05
49 *560:D *560:A 0.000120655
50 *565:A2 *542:A_N 3.23391e-05
51 *570:B *511:D_N 0
52 *574:A *133:23 5.20485e-05
53 *574:C *133:23 0
54 *575:B *575:A 7.36562e-05
55 *597:D *575:A 0
56 *599:A *133:74 4.82863e-05
57 *60:6 *133:74 1.91597e-05
58 *89:33 *133:47 5.0751e-05
59 *89:48 *542:A_N 5.98004e-06
60 *89:48 *133:23 2.84137e-05
61 *89:48 *133:47 7.45881e-05
62 *91:23 *511:D_N 0
63 *91:23 *133:78 0
64 *91:27 *133:74 0.000863932
65 *94:10 *133:66 0.000117832
66 *95:10 *133:23 4.39933e-05
67 *95:12 *575:A 0.000114024
68 *95:12 *133:23 8.8266e-05
69 *98:10 *542:A_N 8.5225e-05
70 *107:21 *542:A_N 1.0183e-05
71 *107:21 *133:47 7.25036e-05
72 *107:27 *542:A_N 5.65627e-05
73 *107:27 *133:51 4.82919e-05
74 *107:27 *133:66 8.65905e-05
75 *107:60 *542:A_N 4.50017e-05
76 *107:72 *560:A 5.65627e-05
77 *107:74 *560:A 4.43871e-06
78 *107:74 *133:78 0.000188453
79 *108:12 *133:13 4.82919e-05
80 *108:12 *133:23 0
81 *108:21 *133:13 0.000266453
82 *108:21 *133:47 0.000235573
83 *109:24 *133:66 0.000101273
84 *114:55 *133:66 2.23407e-05
*RES
1 *603:X *133:4 1.6 
2 *133:4 *536:A1 2.05 
3 *133:4 *133:13 3.21 
4 *133:13 *133:23 8.59 
5 *133:23 *575:A 9.065 
6 *133:23 *535:A 1.6 
7 *133:13 *133:47 6.32 
8 *133:47 *133:51 2.45 
9 *133:51 *533:A_N 1.6 
10 *133:51 *133:66 11.275 
11 *133:66 *133:74 14.295 
12 *133:74 *133:76 2 
13 *133:76 *133:78 4.185 
14 *133:78 *511:D_N 6.63 
15 *133:78 *543:A 4.05 
16 *133:76 *560:A 7.665 
17 *133:74 *552:A 1.6 
18 *133:66 *546:A1 2.755 
19 *133:47 *542:A_N 8.835 
*END

*D_NET *134 0.00918069
*CONN
*I *543:C I *D sky130_fd_sc_hd__or4_1
*I *571:B1 I *D sky130_fd_sc_hd__a21o_1
*I *532:B I *D sky130_fd_sc_hd__nand3_1
*I *563:A3 I *D sky130_fd_sc_hd__o41a_1
*I *539:C1 I *D sky130_fd_sc_hd__o2111a_1
*I *546:A3 I *D sky130_fd_sc_hd__o41a_1
*I *547:A I *D sky130_fd_sc_hd__nor3b_2
*I *542:B_N I *D sky130_fd_sc_hd__and4bb_1
*I *537:B I *D sky130_fd_sc_hd__and2b_1
*I *534:C I *D sky130_fd_sc_hd__nand4_1
*I *604:X O *D sky130_fd_sc_hd__buf_2
*CAP
1 *543:C 0.00038239
2 *571:B1 3.53181e-05
3 *532:B 1.70535e-05
4 *563:A3 0.00027121
5 *539:C1 0
6 *546:A3 0
7 *547:A 0.00012039
8 *542:B_N 6.17431e-05
9 *537:B 4.37432e-05
10 *534:C 0.000191332
11 *604:X 0
12 *134:93 0.000449553
13 *134:80 0.000277933
14 *134:54 0.000233353
15 *134:43 0.000219698
16 *134:39 0.000526789
17 *134:16 0.000661243
18 *134:10 0.000244929
19 *134:6 0.000195641
20 *134:4 0.000482285
21 *532:B *136:40 3.21081e-06
22 *534:C *534:D 6.57705e-05
23 *543:C *136:25 0.000241738
24 *543:C *136:40 0.000265565
25 *547:A *547:B 0.000145724
26 *547:A *136:80 8.53113e-06
27 *547:A *136:91 8.45475e-05
28 *563:A3 *498:A 0.000281285
29 *134:6 *136:40 0.0003248
30 *134:10 *136:40 3.99879e-05
31 *134:10 *136:42 3.00381e-05
32 *134:10 *136:58 2.75229e-05
33 *134:16 *136:58 5.98934e-05
34 *134:39 *136:69 0
35 *134:43 *537:A_N 4.82919e-05
36 *134:54 *136:69 3.09233e-05
37 *134:54 *136:80 0.000127366
38 *511:D_N *543:C 4.7228e-05
39 *534:A *534:C 0.00012657
40 *534:A *134:16 0.00022558
41 *539:B1 *563:A3 5.06809e-05
42 *539:B1 *134:93 4.92861e-05
43 *540:A2 *134:43 6.07575e-06
44 *542:A_N *134:54 9.29751e-06
45 *546:A2 *134:93 4.82863e-05
46 *550:A1 *537:B 1.34503e-05
47 *550:A1 *134:43 2.54431e-05
48 *565:A1 *134:93 0.000197385
49 *565:A2 *547:A 0.000243275
50 *565:C1 *563:A3 4.10429e-05
51 *566:A1 *563:A3 8.8266e-05
52 *568:C1 *543:C 6.58955e-06
53 *570:B *543:C 0.000233812
54 *573:A *134:39 0
55 *573:B *134:10 4.99619e-05
56 *573:B *134:16 8.73415e-05
57 *574:A *534:C 0
58 *574:C *534:C 9.80943e-06
59 *596:D *534:C 0
60 *56:14 *547:A 2.16833e-05
61 *76:19 *134:39 0
62 *78:10 *563:A3 7.9642e-06
63 *78:10 *134:93 2.46007e-05
64 *89:27 *571:B1 0
65 *93:19 *134:6 0.000198945
66 *93:19 *134:10 0.000187281
67 *95:6 *534:C 5.83121e-06
68 *98:10 *537:B 4.99619e-05
69 *98:10 *547:A 2.23922e-05
70 *98:10 *134:54 0.00013521
71 *107:10 *534:C 9.50342e-06
72 *107:21 *534:C 6.28498e-05
73 *107:60 *547:A 7.04675e-05
74 *114:55 *134:39 9.14049e-05
75 *115:36 *542:B_N 3.85569e-05
76 *129:80 *563:A3 8.40269e-05
77 *129:80 *571:B1 2.8867e-05
78 *129:80 *134:93 0
79 *133:66 *134:39 0.000116165
80 *133:66 *134:43 4.82919e-05
81 *133:66 *134:80 5.68717e-05
82 *133:66 *134:93 0.00016063
83 *133:74 *134:80 0
*RES
1 *604:X *134:4 1.6 
2 *134:4 *134:6 3.21 
3 *134:6 *134:10 2.535 
4 *134:10 *134:16 4.02 
5 *134:16 *534:C 9.11 
6 *134:16 *134:39 9.205 
7 *134:39 *134:43 2.19 
8 *134:43 *537:B 2.395 
9 *134:43 *134:54 3.89 
10 *134:54 *542:B_N 4.41 
11 *134:54 *547:A 7.305 
12 *134:39 *134:80 1.5 
13 *134:80 *546:A3 1.6 
14 *134:80 *134:93 7.885 
15 *134:93 *539:C1 1.6 
16 *134:93 *563:A3 10.91 
17 *134:10 *532:B 1.96 
18 *134:6 *571:B1 6.215 
19 *134:4 *543:C 13.55 
*END

*D_NET *135 0.00373647
*CONN
*I *511:B I *D sky130_fd_sc_hd__or4b_4
*I *510:B I *D sky130_fd_sc_hd__nor4b_1
*I *538:B I *D sky130_fd_sc_hd__and3b_1
*I *531:B I *D sky130_fd_sc_hd__and3_1
*I *560:C I *D sky130_fd_sc_hd__or4_1
*I *605:X O *D sky130_fd_sc_hd__buf_1
*CAP
1 *511:B 0
2 *510:B 0
3 *538:B 0.000246697
4 *531:B 0
5 *560:C 0
6 *605:X 0.000172216
7 *135:33 0.00043366
8 *135:20 0.000397372
9 *135:16 0.000338676
10 *135:6 0.000300483
11 *538:B *531:C 9.32826e-05
12 *135:6 *136:12 0.000119756
13 *135:6 *137:31 4.58166e-05
14 *135:16 *137:10 0
15 *135:20 *137:10 0.000116165
16 *510:C *135:16 5.68175e-05
17 *510:C *135:20 9.82856e-06
18 *530:B *135:16 8.49205e-05
19 *530:B *135:20 5.38986e-06
20 *531:A *538:B 0.000128444
21 *538:A_N *135:20 0
22 *545:A2 *135:16 4.35348e-05
23 *560:A *135:33 1.56428e-05
24 *562:A2 *538:B 0.000113237
25 *562:A2 *135:33 0.00012657
26 *607:A *538:B 0
27 *607:A *135:20 0.0003773
28 *607:A *135:33 5.39961e-05
29 *644:A *135:16 1.16578e-05
30 *60:88 *135:20 0.000118021
31 *60:88 *135:33 2.4997e-05
32 *92:12 *538:B 0.000113511
33 *105:8 *135:16 0.000113828
34 *107:74 *135:20 7.46537e-05
*RES
1 *605:X *135:6 3.775 
2 *135:6 *135:16 6.88 
3 *135:16 *135:20 8.225 
4 *135:20 *560:C 3.6 
5 *135:20 *135:33 4.79 
6 *135:33 *531:B 1.6 
7 *135:33 *538:B 10.925 
8 *135:16 *510:B 1.6 
9 *135:6 *511:B 1.6 
*END

*D_NET *136 0.0106799
*CONN
*I *531:C I *D sky130_fd_sc_hd__and3_1
*I *571:A2 I *D sky130_fd_sc_hd__a21o_1
*I *532:C I *D sky130_fd_sc_hd__nand3_1
*I *547:B I *D sky130_fd_sc_hd__nor3b_2
*I *498:A I *D sky130_fd_sc_hd__inv_2
*I *542:C I *D sky130_fd_sc_hd__and4bb_1
*I *537:A_N I *D sky130_fd_sc_hd__and2b_1
*I *534:D I *D sky130_fd_sc_hd__nand4_1
*I *569:B I *D sky130_fd_sc_hd__or2_1
*I *511:C I *D sky130_fd_sc_hd__or4b_4
*I *606:X O *D sky130_fd_sc_hd__buf_2
*CAP
1 *531:C 0.000221774
2 *571:A2 0
3 *532:C 0
4 *547:B 8.85173e-05
5 *498:A 0.000197454
6 *542:C 8.57963e-05
7 *537:A_N 1.17375e-05
8 *534:D 3.51263e-05
9 *569:B 0
10 *511:C 0
11 *606:X 0
12 *136:91 0.000320446
13 *136:80 0.000173506
14 *136:69 0.000352157
15 *136:58 0.000805483
16 *136:42 0.000495552
17 *136:40 0.000325119
18 *136:25 0.000729759
19 *136:12 0.000562992
20 *136:6 0.000367746
21 *136:12 *137:31 7.04919e-05
22 *506:A *531:C 0
23 *506:A *136:12 0
24 *511:A *136:12 8.65905e-05
25 *511:A *136:25 8.12469e-05
26 *511:D_N *136:25 0.000122337
27 *528:B *136:25 2.28636e-05
28 *531:A *531:C 1.70906e-05
29 *532:A *136:58 1.00941e-05
30 *532:B *136:40 3.21081e-06
31 *534:C *534:D 6.57705e-05
32 *538:B *531:C 9.32826e-05
33 *539:A1 *498:A 8.8266e-05
34 *542:A_N *136:69 0
35 *543:C *136:25 0.000241738
36 *543:C *136:40 0.000265565
37 *547:A *547:B 0.000145724
38 *547:A *136:80 8.53113e-06
39 *547:A *136:91 8.45475e-05
40 *547:C_N *547:B 0
41 *548:A *498:A 8.49205e-05
42 *549:C *498:A 0.000233004
43 *550:A1 *537:A_N 2.75229e-05
44 *563:A3 *498:A 0.000281285
45 *565:B1 *498:A 8.49205e-05
46 *571:A1 *136:58 6.15576e-06
47 *572:A *136:40 2.75145e-05
48 *572:C *136:40 1.61831e-05
49 *573:A *136:69 0
50 *574:C *534:D 0.000119756
51 *574:C *136:58 0.000393029
52 *598:A *531:C 0.000301899
53 *598:A *136:12 0.000201033
54 *607:A *531:C 0
55 *89:6 *136:25 0.000238919
56 *89:16 *136:25 0.00015479
57 *89:16 *136:40 0.000257656
58 *94:10 *547:B 1.52184e-05
59 *94:10 *136:69 6.10014e-05
60 *94:10 *136:80 7.17811e-05
61 *94:10 *136:91 5.02217e-05
62 *94:27 *498:A 0.000354095
63 *95:6 *534:D 1.47256e-05
64 *107:10 *136:58 9.50342e-06
65 *107:21 *136:58 5.16348e-05
66 *107:21 *136:69 0.000388508
67 *112:41 *136:12 0
68 *115:36 *542:C 0.000122337
69 *129:80 *498:A 6.65605e-05
70 *129:80 *136:58 2.53191e-06
71 *129:82 *498:A 3.96653e-05
72 *133:66 *136:69 1.44259e-05
73 *134:6 *136:40 0.0003248
74 *134:10 *136:40 3.99879e-05
75 *134:10 *136:42 3.00381e-05
76 *134:10 *136:58 2.75229e-05
77 *134:16 *136:58 5.98934e-05
78 *134:39 *136:69 0
79 *134:43 *537:A_N 4.82919e-05
80 *134:54 *136:69 3.09233e-05
81 *134:54 *136:80 0.000127366
82 *135:6 *136:12 0.000119756
*RES
1 *606:X *136:6 3.6 
2 *136:6 *136:12 5.885 
3 *136:12 *511:C 1.6 
4 *136:12 *136:25 8.685 
5 *136:25 *569:B 1.6 
6 *136:25 *136:40 8.61 
7 *136:40 *136:42 0.45 
8 *136:42 *136:58 13.065 
9 *136:58 *534:D 4.74 
10 *136:58 *136:69 6.225 
11 *136:69 *537:A_N 4.05 
12 *136:69 *136:80 1.635 
13 *136:80 *542:C 4.74 
14 *136:80 *136:91 1.125 
15 *136:91 *498:A 10.74 
16 *136:91 *547:B 5.49 
17 *136:42 *532:C 1.6 
18 *136:40 *571:A2 1.6 
19 *136:6 *531:C 8.715 
*END

*D_NET *137 0.0125655
*CONN
*I *519:C1 I *D sky130_fd_sc_hd__o211a_1
*I *525:C1 I *D sky130_fd_sc_hd__o211a_1
*I *523:C1 I *D sky130_fd_sc_hd__o211a_1
*I *521:C1 I *D sky130_fd_sc_hd__o211a_1
*I *517:C1 I *D sky130_fd_sc_hd__o211a_1
*I *509:B I *D sky130_fd_sc_hd__and2b_1
*I *513:C1 I *D sky130_fd_sc_hd__o211a_1
*I *515:C1 I *D sky130_fd_sc_hd__o211a_1
*I *529:A I *D sky130_fd_sc_hd__nand2_2
*I *528:A I *D sky130_fd_sc_hd__and2_2
*I *607:X O *D sky130_fd_sc_hd__buf_2
*CAP
1 *519:C1 0
2 *525:C1 0.000232474
3 *523:C1 2.32329e-05
4 *521:C1 0
5 *517:C1 7.63595e-05
6 *509:B 0.000187838
7 *513:C1 9.66837e-05
8 *515:C1 0.000145707
9 *529:A 2.14525e-05
10 *528:A 1.7595e-05
11 *607:X 0.000171401
12 *137:113 0.000466475
13 *137:104 0.000484825
14 *137:87 0.000888483
15 *137:79 0.000637239
16 *137:55 0.000284521
17 *137:53 0.000633691
18 *137:40 0.000852504
19 *137:31 0.000808927
20 *137:10 0.000804192
21 *509:B *577:CLK 4.66108e-05
22 *517:C1 *149:12 0
23 *503:A *509:B 9.37731e-05
24 *510:C *137:10 9.29751e-06
25 *510:D_N *137:10 1.88656e-05
26 *511:A *528:A 8.65905e-05
27 *511:A *137:10 7.79032e-05
28 *511:A *137:31 0.000199833
29 *511:D_N *528:A 2.30292e-05
30 *513:A1 *513:C1 0
31 *513:A1 *137:53 0.000152088
32 *517:A1 *137:104 0.000185626
33 *517:A2 *517:C1 5.42217e-05
34 *517:A2 *137:104 4.9968e-05
35 *519:A1 *509:B 0.000486136
36 *519:A1 *513:C1 4.93879e-05
37 *519:A1 *137:53 2.49909e-05
38 *519:A1 *137:79 5.2711e-05
39 *519:A1 *137:87 0.00015896
40 *519:B1 *137:87 0.000253994
41 *523:A1 *525:C1 1.73877e-05
42 *523:B1 *525:C1 8.53113e-06
43 *523:B1 *137:113 0.000139933
44 *525:A2 *525:C1 0
45 *527:A2 *509:B 0.000576988
46 *527:A2 *513:C1 0.00015771
47 *528:B *528:A 0.00012657
48 *528:B *137:31 0.000339604
49 *529:B *137:31 4.82919e-05
50 *545:A2 *137:31 0.000292266
51 *557:B1 *525:C1 0
52 *557:B1 *137:113 0
53 *559:B1 *509:B 4.66108e-05
54 *559:B1 *525:C1 5.84456e-05
55 *559:B1 *137:113 1.07797e-05
56 *568:C1 *137:10 0
57 *598:A *137:31 0
58 *605:A *137:31 4.43871e-06
59 *633:A *525:C1 0.000249935
60 *636:A *523:C1 2.75145e-05
61 *644:A *137:31 2.10034e-05
62 *80:15 *137:31 4.99619e-05
63 *80:98 *137:87 0.000145572
64 *80:115 *137:104 1.94723e-05
65 *80:115 *137:113 4.18603e-06
66 *80:130 *137:113 7.4645e-05
67 *90:10 *529:A 0
68 *90:10 *137:31 0.00013175
69 *90:10 *137:40 5.30673e-05
70 *90:12 *137:31 0.000153217
71 *90:22 *137:31 4.82919e-05
72 *104:10 *515:C1 6.42427e-05
73 *105:8 *137:10 0
74 *107:74 *137:10 6.28843e-05
75 *112:41 *137:31 1.84258e-05
76 *118:34 *525:C1 0.0001249
77 *130:8 *137:87 0.000313852
78 *130:8 *137:104 8.49205e-05
79 *132:29 *517:C1 0
80 *135:6 *137:31 4.58166e-05
81 *135:16 *137:10 0
82 *135:20 *137:10 0.000116165
83 *136:12 *137:31 7.04919e-05
*RES
1 *607:X *137:10 9.275 
2 *137:10 *528:A 2.74 
3 *137:10 *137:31 16.915 
4 *137:31 *529:A 1.96 
5 *137:31 *137:40 2.865 
6 *137:40 *515:C1 7.745 
7 *137:40 *137:53 8.04 
8 *137:53 *137:55 2 
9 *137:55 *513:C1 5.745 
10 *137:55 *509:B 10.785 
11 *137:53 *137:79 1.845 
12 *137:79 *137:87 9.12 
13 *137:87 *517:C1 7.235 
14 *137:87 *137:104 7.745 
15 *137:104 *521:C1 3.6 
16 *137:104 *137:113 4.185 
17 *137:113 *523:C1 4.05 
18 *137:113 *525:C1 8.925 
19 *137:79 *519:C1 1.6 
*END

*D_NET *138 0.000840364
*CONN
*I *577:CLK I *D sky130_fd_sc_hd__dfxtp_1
*I *508:Y O *D sky130_fd_sc_hd__inv_2
*CAP
1 *577:CLK 0.000105754
2 *508:Y 0.000105754
3 *577:CLK *509:A_N 0.000234669
4 *509:B *577:CLK 4.66108e-05
5 *551:B1 *577:CLK 0.000136037
6 *559:B1 *577:CLK 7.98925e-05
7 *104:114 *577:CLK 0.000115464
8 *115:36 *577:CLK 1.61831e-05
*RES
1 *508:Y *577:CLK 11.1 
*END

*D_NET *139 0.0011948
*CONN
*I *509:A_N I *D sky130_fd_sc_hd__and2b_1
*I *608:X O *D sky130_fd_sc_hd__dlygate4sd3_1
*CAP
1 *509:A_N 0.000257429
2 *608:X 0.000257429
3 *559:B1 *509:A_N 0.000137286
4 *577:CLK *509:A_N 0.000234669
5 *577:D *509:A_N 0.000147728
6 *620:A *509:A_N 0
7 *111:8 *509:A_N 0
8 *115:36 *509:A_N 9.66021e-05
9 *116:10 *509:A_N 6.36578e-05
*RES
1 *608:X *509:A_N 13.86 
*END

*D_NET *140 0.00233004
*CONN
*I *527:A1 I *D sky130_fd_sc_hd__o211a_1
*I *609:X O *D sky130_fd_sc_hd__dlygate4sd3_1
*CAP
1 *527:A1 0.00053507
2 *609:X 0.00053507
3 *585:CLK *527:A1 0.000148275
4 *591:CLK *527:A1 0.000448536
5 *591:D *527:A1 0.000149404
6 *117:22 *527:A1 0.000513685
*RES
1 *609:X *527:A1 14.135 
*END

*D_NET *141 0.00063139
*CONN
*I *585:D I *D sky130_fd_sc_hd__dfxtp_1
*I *610:X O *D sky130_fd_sc_hd__dlygate4sd3_1
*CAP
1 *585:D 0.000105857
2 *610:X 0.000105857
3 *502:A *585:D 0.00015896
4 *526:A *585:D 2.66935e-05
5 *632:A *585:D 3.39064e-05
6 *117:22 *585:D 0.000200117
*RES
1 *610:X *585:D 10.1888 
*END

*D_NET *142 0.00607208
*CONN
*I *638:A I *D sky130_fd_sc_hd__buf_2
*I *514:A I *D sky130_fd_sc_hd__or2_1
*I *579:Q O *D sky130_fd_sc_hd__dfxtp_1
*CAP
1 *638:A 0.00104891
2 *514:A 0.000166704
3 *579:Q 0.000133902
4 *142:10 0.00134951
5 *512:A *638:A 0.000271482
6 *513:B1 *638:A 1.7386e-05
7 *637:A *638:A 0.00203012
8 *132:12 *514:A 4.82919e-05
9 *132:12 *142:10 0
10 *132:18 *514:A 0.000154196
11 *132:18 *638:A 0.000764991
12 *132:29 *638:A 8.65905e-05
*RES
1 *579:Q *142:10 7.49 
2 *142:10 *514:A 5.17 
3 *142:10 *638:A 29.08 
*END

*D_NET *143 0.000598149
*CONN
*I *524:A I *D sky130_fd_sc_hd__or2_1
*I *611:X O *D sky130_fd_sc_hd__dlygate4sd3_1
*CAP
1 *524:A 9.23917e-05
2 *611:X 9.23917e-05
3 dac_in_n[5] *524:A 7.00889e-06
4 *500:A *524:A 0.000318091
5 *525:B1 *524:A 8.8266e-05
*RES
1 *611:X *524:A 6.065 
*END

*D_NET *144 0.000642147
*CONN
*I *516:A I *D sky130_fd_sc_hd__or2_1
*I *612:X O *D sky130_fd_sc_hd__dlygate4sd3_1
*CAP
1 *516:A 0.00029693
2 *612:X 0.00029693
3 *516:B *516:A 4.82863e-05
*RES
1 *612:X *516:A 7.79 
*END

*D_NET *145 0.000302129
*CONN
*I *520:A I *D sky130_fd_sc_hd__or2_1
*I *613:X O *D sky130_fd_sc_hd__dlygate4sd3_1
*CAP
1 *520:A 0.000126919
2 *613:X 0.000126919
3 *520:B *520:A 4.82919e-05
*RES
1 *613:X *520:A 5.03 
*END

*D_NET *146 0.00116215
*CONN
*I *522:A I *D sky130_fd_sc_hd__or2_1
*I *614:X O *D sky130_fd_sc_hd__dlygate4sd3_1
*CAP
1 *522:A 0.000497907
2 *614:X 0.000497907
3 *522:A *151:8 2.11084e-05
4 *524:B *522:A 7.07801e-05
5 *583:D *522:A 9.90763e-06
6 *636:A *522:A 5.90074e-05
7 *104:88 *522:A 0
8 *130:32 *522:A 5.53249e-06
*RES
1 *614:X *522:A 13.77 
*END

*D_NET *147 0.000512926
*CONN
*I *518:A I *D sky130_fd_sc_hd__or2_1
*I *615:X O *D sky130_fd_sc_hd__dlygate4sd3_1
*CAP
1 *518:A 0.000152386
2 *615:X 0.000152386
3 *518:B *518:A 4.82863e-05
4 *80:98 *518:A 0.000159867
*RES
1 *615:X *518:A 6.065 
*END

*D_NET *148 0.00201145
*CONN
*I *612:A I *D sky130_fd_sc_hd__dlygate4sd3_1
*I *639:A I *D sky130_fd_sc_hd__buf_2
*I *580:Q O *D sky130_fd_sc_hd__dfxtp_1
*CAP
1 *612:A 8.83727e-05
2 *639:A 0.000595084
3 *580:Q 0.000322268
4 *148:8 0.00100572
*RES
1 *580:Q *148:8 7.155 
2 *148:8 *639:A 12.6 
3 *148:8 *612:A 4.98 
*END

*D_NET *149 0.00323687
*CONN
*I *640:A I *D sky130_fd_sc_hd__buf_2
*I *615:A I *D sky130_fd_sc_hd__dlygate4sd3_1
*I *581:Q O *D sky130_fd_sc_hd__dfxtp_1
*CAP
1 *640:A 0.00113694
2 *615:A 0
3 *581:Q 0.000214464
4 *149:12 0.0013514
5 *517:C1 *149:12 0
6 *80:98 *640:A 3.57349e-05
7 *80:98 *149:12 0.000238137
8 *80:115 *640:A 8.23457e-05
9 *130:8 *640:A 0.000177849
10 *132:29 *149:12 0
*RES
1 *581:Q *149:12 9.41 
2 *149:12 *615:A 1.6 
3 *149:12 *640:A 19.645 
*END

*D_NET *150 0.00175203
*CONN
*I *641:A I *D sky130_fd_sc_hd__buf_2
*I *613:A I *D sky130_fd_sc_hd__dlygate4sd3_1
*I *582:Q O *D sky130_fd_sc_hd__dfxtp_1
*CAP
1 *641:A 0.000690243
2 *613:A 0
3 *582:Q 0.000185772
4 *150:12 0.000876015
5 *130:21 *150:12 0
*RES
1 *582:Q *150:12 8.375 
2 *150:12 *613:A 1.6 
3 *150:12 *641:A 12.055 
*END

*D_NET *151 0.00164722
*CONN
*I *642:A I *D sky130_fd_sc_hd__buf_2
*I *614:A I *D sky130_fd_sc_hd__dlygate4sd3_1
*I *583:Q O *D sky130_fd_sc_hd__dfxtp_1
*CAP
1 *642:A 0.000319048
2 *614:A 0
3 *583:Q 0.000143492
4 *151:8 0.00046254
5 *522:A *151:8 2.11084e-05
6 *636:A *642:A 0.00050979
7 *636:A *151:8 0.000191243
*RES
1 *583:Q *151:8 5.08 
2 *151:8 *614:A 1.6 
3 *151:8 *642:A 9.295 
*END

*D_NET *152 0.00281184
*CONN
*I *611:A I *D sky130_fd_sc_hd__dlygate4sd3_1
*I *643:A I *D sky130_fd_sc_hd__buf_2
*I *584:Q O *D sky130_fd_sc_hd__dfxtp_1
*CAP
1 *611:A 0.000209513
2 *643:A 0.000188635
3 *584:Q 0.000360937
4 *152:10 0.000759085
5 dac_in_n[5] *611:A 3.23663e-05
6 *619:A *643:A 0.00062029
7 *619:A *152:10 0.000507936
8 *634:A *611:A 4.99619e-05
9 *635:A *611:A 0
10 *635:A *643:A 8.31173e-05
*RES
1 *584:Q *152:10 8.805 
2 *152:10 *643:A 9.225 
3 *152:10 *611:A 7.23 
*END
