*SPEF "ieee 1481-1999"
*DESIGN "controller"
*DATE "17:02:50 Tuesday December 16, 2025"
*VENDOR "The OpenROAD Project"
*PROGRAM "OpenROAD"
*VERSION "edf00dff99f6c40d67a30c0e22a8191c5d2ed9d6"
*DESIGN_FLOW "NAME_SCOPE LOCAL" "PIN_CAP NONE"
*DIVIDER /
*DELIMITER :
*BUS_DELIMITER []
*T_UNIT 1 NS
*C_UNIT 1 PF
*R_UNIT 1 OHM
*L_UNIT 1 HENRY

*NAME_MAP
*3 adc_out[0]
*4 adc_out[1]
*5 adc_out[2]
*6 adc_out[3]
*7 adc_out[4]
*8 adc_out[5]
*9 adc_out[6]
*10 adc_out[7]
*11 clk
*12 comp
*13 comparator_clk
*14 dac_in[0]
*15 dac_in[1]
*16 dac_in[2]
*17 dac_in[3]
*18 dac_in[4]
*19 dac_in[5]
*20 dac_in[6]
*21 dac_in[7]
*22 dac_in_n[0]
*23 dac_in_n[1]
*24 dac_in_n[2]
*25 dac_in_n[3]
*26 dac_in_n[4]
*27 dac_in_n[5]
*28 dac_in_n[6]
*29 dac_in_n[7]
*30 rst_n
*31 _001_
*32 _002_
*33 _003_
*34 _004_
*35 _005_
*36 _006_
*37 _007_
*38 _008_
*39 _009_
*40 _010_
*41 _011_
*42 _012_
*43 _013_
*44 _014_
*45 _015_
*46 _016_
*47 _017_
*48 _018_
*49 _019_
*50 _020_
*51 _021_
*52 _022_
*53 _023_
*54 _024_
*55 _025_
*56 _026_
*57 _027_
*58 _028_
*59 _029_
*60 _030_
*61 _031_
*62 _032_
*63 _033_
*64 _034_
*65 _035_
*66 _036_
*67 _037_
*68 _038_
*69 _039_
*70 _040_
*71 _041_
*72 _042_
*73 _043_
*74 _044_
*75 _045_
*76 _046_
*77 _047_
*78 _048_
*79 _049_
*80 _050_
*81 _051_
*82 _052_
*83 _053_
*84 _054_
*85 _055_
*86 _056_
*87 _057_
*88 _058_
*89 _059_
*90 _060_
*91 _061_
*92 _062_
*93 _063_
*94 _064_
*95 _065_
*96 _066_
*97 _067_
*98 _068_
*99 _069_
*100 _070_
*101 _071_
*102 clknet_0_clk
*103 clknet_1_0__leaf_clk
*104 clknet_1_1__leaf_clk
*105 count\[0\]
*106 count\[1\]
*107 count\[2\]
*108 count\[3\]
*109 net1
*110 net10
*111 net11
*112 net12
*113 net13
*114 net14
*115 net15
*116 net16
*117 net17
*118 net18
*119 net19
*120 net2
*121 net20
*122 net21
*123 net22
*124 net23
*125 net24
*126 net25
*127 net26
*128 net27
*129 net28
*130 net29
*131 net3
*132 net30
*133 net31
*134 net32
*135 net33
*136 net34
*137 net35
*138 net36
*139 net37
*140 net38
*141 net39
*142 net4
*143 net40
*144 net41
*145 net42
*146 net43
*147 net5
*148 net6
*149 net7
*150 net8
*151 net9
*152 FILLER_0_109
*153 FILLER_0_113
*154 FILLER_0_125
*155 FILLER_0_137
*156 FILLER_0_141
*157 FILLER_0_15
*158 FILLER_0_153
*159 FILLER_0_165
*160 FILLER_0_169
*161 FILLER_0_181
*162 FILLER_0_187
*163 FILLER_0_193
*164 FILLER_0_197
*165 FILLER_0_209
*166 FILLER_0_221
*167 FILLER_0_225
*168 FILLER_0_237
*169 FILLER_0_249
*170 FILLER_0_253
*171 FILLER_0_265
*172 FILLER_0_27
*173 FILLER_0_273
*174 FILLER_0_281
*175 FILLER_0_29
*176 FILLER_0_3
*177 FILLER_0_41
*178 FILLER_0_53
*179 FILLER_0_57
*180 FILLER_0_69
*181 FILLER_0_81
*182 FILLER_0_85
*183 FILLER_0_97
*184 FILLER_1_110
*185 FILLER_1_113
*186 FILLER_1_125
*187 FILLER_1_147
*188 FILLER_1_15
*189 FILLER_1_159
*190 FILLER_1_167
*191 FILLER_1_201
*192 FILLER_1_207
*193 FILLER_1_230
*194 FILLER_1_252
*195 FILLER_1_264
*196 FILLER_1_27
*197 FILLER_1_276
*198 FILLER_1_281
*199 FILLER_1_3
*200 FILLER_1_39
*201 FILLER_1_51
*202 FILLER_1_55
*203 FILLER_1_73
*204 FILLER_1_92
*205 FILLER_2_119
*206 FILLER_2_133
*207 FILLER_2_15
*208 FILLER_2_155
*209 FILLER_2_167
*210 FILLER_2_175
*211 FILLER_2_189
*212 FILLER_2_195
*213 FILLER_2_197
*214 FILLER_2_203
*215 FILLER_2_223
*216 FILLER_2_244
*217 FILLER_2_261
*218 FILLER_2_27
*219 FILLER_2_273
*220 FILLER_2_285
*221 FILLER_2_29
*222 FILLER_2_3
*223 FILLER_2_41
*224 FILLER_2_53
*225 FILLER_2_61
*226 FILLER_2_75
*227 FILLER_2_82
*228 FILLER_2_90
*229 FILLER_2_94
*230 FILLER_3_102
*231 FILLER_3_111
*232 FILLER_3_113
*233 FILLER_3_125
*234 FILLER_3_132
*235 FILLER_3_15
*236 FILLER_3_151
*237 FILLER_3_162
*238 FILLER_3_169
*239 FILLER_3_181
*240 FILLER_3_193
*241 FILLER_3_201
*242 FILLER_3_233
*243 FILLER_3_237
*244 FILLER_3_243
*245 FILLER_3_255
*246 FILLER_3_267
*247 FILLER_3_27
*248 FILLER_3_279
*249 FILLER_3_281
*250 FILLER_3_3
*251 FILLER_3_39
*252 FILLER_3_51
*253 FILLER_3_55
*254 FILLER_3_57
*255 FILLER_3_63
*256 FILLER_3_74
*257 FILLER_3_86
*258 FILLER_3_98
*259 FILLER_4_103
*260 FILLER_4_124
*261 FILLER_4_136
*262 FILLER_4_145
*263 FILLER_4_15
*264 FILLER_4_155
*265 FILLER_4_164
*266 FILLER_4_172
*267 FILLER_4_178
*268 FILLER_4_190
*269 FILLER_4_197
*270 FILLER_4_209
*271 FILLER_4_221
*272 FILLER_4_233
*273 FILLER_4_261
*274 FILLER_4_27
*275 FILLER_4_273
*276 FILLER_4_285
*277 FILLER_4_29
*278 FILLER_4_3
*279 FILLER_4_41
*280 FILLER_4_53
*281 FILLER_4_65
*282 FILLER_4_77
*283 FILLER_4_83
*284 FILLER_4_91
*285 FILLER_5_108
*286 FILLER_5_113
*287 FILLER_5_117
*288 FILLER_5_143
*289 FILLER_5_147
*290 FILLER_5_169
*291 FILLER_5_175
*292 FILLER_5_18
*293 FILLER_5_221
*294 FILLER_5_225
*295 FILLER_5_239
*296 FILLER_5_251
*297 FILLER_5_263
*298 FILLER_5_275
*299 FILLER_5_279
*300 FILLER_5_281
*301 FILLER_5_30
*302 FILLER_5_38
*303 FILLER_5_57
*304 FILLER_5_6
*305 FILLER_5_66
*306 FILLER_5_72
*307 FILLER_5_80
*308 FILLER_5_99
*309 FILLER_6_106
*310 FILLER_6_116
*311 FILLER_6_128
*312 FILLER_6_15
*313 FILLER_6_152
*314 FILLER_6_160
*315 FILLER_6_168
*316 FILLER_6_180
*317 FILLER_6_192
*318 FILLER_6_219
*319 FILLER_6_231
*320 FILLER_6_244
*321 FILLER_6_253
*322 FILLER_6_265
*323 FILLER_6_27
*324 FILLER_6_277
*325 FILLER_6_285
*326 FILLER_6_29
*327 FILLER_6_3
*328 FILLER_6_41
*329 FILLER_6_53
*330 FILLER_6_65
*331 FILLER_6_73
*332 FILLER_7_100
*333 FILLER_7_110
*334 FILLER_7_113
*335 FILLER_7_121
*336 FILLER_7_134
*337 FILLER_7_15
*338 FILLER_7_154
*339 FILLER_7_158
*340 FILLER_7_169
*341 FILLER_7_183
*342 FILLER_7_195
*343 FILLER_7_207
*344 FILLER_7_222
*345 FILLER_7_225
*346 FILLER_7_263
*347 FILLER_7_27
*348 FILLER_7_275
*349 FILLER_7_279
*350 FILLER_7_281
*351 FILLER_7_3
*352 FILLER_7_39
*353 FILLER_7_57
*354 FILLER_7_69
*355 FILLER_7_77
*356 FILLER_8_115
*357 FILLER_8_123
*358 FILLER_8_145
*359 FILLER_8_15
*360 FILLER_8_153
*361 FILLER_8_157
*362 FILLER_8_165
*363 FILLER_8_191
*364 FILLER_8_195
*365 FILLER_8_227
*366 FILLER_8_231
*367 FILLER_8_235
*368 FILLER_8_253
*369 FILLER_8_264
*370 FILLER_8_27
*371 FILLER_8_276
*372 FILLER_8_29
*373 FILLER_8_3
*374 FILLER_8_41
*375 FILLER_8_69
*376 FILLER_8_81
*377 FILLER_8_85
*378 FILLER_8_97
*379 FILLER_9_10
*380 FILLER_9_102
*381 FILLER_9_110
*382 FILLER_9_113
*383 FILLER_9_121
*384 FILLER_9_133
*385 FILLER_9_141
*386 FILLER_9_153
*387 FILLER_9_159
*388 FILLER_9_167
*389 FILLER_9_169
*390 FILLER_9_173
*391 FILLER_9_178
*392 FILLER_9_190
*393 FILLER_9_201
*394 FILLER_9_209
*395 FILLER_9_216
*396 FILLER_9_225
*397 FILLER_9_248
*398 FILLER_9_26
*399 FILLER_9_265
*400 FILLER_9_273
*401 FILLER_9_281
*402 FILLER_9_29
*403 FILLER_9_45
*404 FILLER_9_53
*405 FILLER_9_57
*406 FILLER_9_64
*407 FILLER_9_76
*408 FILLER_9_83
*409 FILLER_9_85
*410 FILLER_9_97
*411 PHY_EDGE_ROW_0_Left_10
*412 PHY_EDGE_ROW_0_Right_0
*413 PHY_EDGE_ROW_1_Left_11
*414 PHY_EDGE_ROW_1_Right_1
*415 PHY_EDGE_ROW_2_Left_12
*416 PHY_EDGE_ROW_2_Right_2
*417 PHY_EDGE_ROW_3_Left_13
*418 PHY_EDGE_ROW_3_Right_3
*419 PHY_EDGE_ROW_4_Left_14
*420 PHY_EDGE_ROW_4_Right_4
*421 PHY_EDGE_ROW_5_Left_15
*422 PHY_EDGE_ROW_5_Right_5
*423 PHY_EDGE_ROW_6_Left_16
*424 PHY_EDGE_ROW_6_Right_6
*425 PHY_EDGE_ROW_7_Left_17
*426 PHY_EDGE_ROW_7_Right_7
*427 PHY_EDGE_ROW_8_Left_18
*428 PHY_EDGE_ROW_8_Right_8
*429 PHY_EDGE_ROW_9_Left_19
*430 PHY_EDGE_ROW_9_Right_9
*431 TAP_TAPCELL_ROW_0_20
*432 TAP_TAPCELL_ROW_0_21
*433 TAP_TAPCELL_ROW_0_22
*434 TAP_TAPCELL_ROW_0_23
*435 TAP_TAPCELL_ROW_0_24
*436 TAP_TAPCELL_ROW_0_25
*437 TAP_TAPCELL_ROW_0_26
*438 TAP_TAPCELL_ROW_0_27
*439 TAP_TAPCELL_ROW_0_28
*440 TAP_TAPCELL_ROW_0_29
*441 TAP_TAPCELL_ROW_1_30
*442 TAP_TAPCELL_ROW_1_31
*443 TAP_TAPCELL_ROW_1_32
*444 TAP_TAPCELL_ROW_1_33
*445 TAP_TAPCELL_ROW_1_34
*446 TAP_TAPCELL_ROW_2_35
*447 TAP_TAPCELL_ROW_2_36
*448 TAP_TAPCELL_ROW_2_37
*449 TAP_TAPCELL_ROW_2_38
*450 TAP_TAPCELL_ROW_2_39
*451 TAP_TAPCELL_ROW_3_40
*452 TAP_TAPCELL_ROW_3_41
*453 TAP_TAPCELL_ROW_3_42
*454 TAP_TAPCELL_ROW_3_43
*455 TAP_TAPCELL_ROW_3_44
*456 TAP_TAPCELL_ROW_4_45
*457 TAP_TAPCELL_ROW_4_46
*458 TAP_TAPCELL_ROW_4_47
*459 TAP_TAPCELL_ROW_4_48
*460 TAP_TAPCELL_ROW_4_49
*461 TAP_TAPCELL_ROW_5_50
*462 TAP_TAPCELL_ROW_5_51
*463 TAP_TAPCELL_ROW_5_52
*464 TAP_TAPCELL_ROW_5_53
*465 TAP_TAPCELL_ROW_5_54
*466 TAP_TAPCELL_ROW_6_55
*467 TAP_TAPCELL_ROW_6_56
*468 TAP_TAPCELL_ROW_6_57
*469 TAP_TAPCELL_ROW_6_58
*470 TAP_TAPCELL_ROW_6_59
*471 TAP_TAPCELL_ROW_7_60
*472 TAP_TAPCELL_ROW_7_61
*473 TAP_TAPCELL_ROW_7_62
*474 TAP_TAPCELL_ROW_7_63
*475 TAP_TAPCELL_ROW_7_64
*476 TAP_TAPCELL_ROW_8_65
*477 TAP_TAPCELL_ROW_8_66
*478 TAP_TAPCELL_ROW_8_67
*479 TAP_TAPCELL_ROW_8_68
*480 TAP_TAPCELL_ROW_8_69
*481 TAP_TAPCELL_ROW_9_70
*482 TAP_TAPCELL_ROW_9_71
*483 TAP_TAPCELL_ROW_9_72
*484 TAP_TAPCELL_ROW_9_73
*485 TAP_TAPCELL_ROW_9_74
*486 TAP_TAPCELL_ROW_9_75
*487 TAP_TAPCELL_ROW_9_76
*488 TAP_TAPCELL_ROW_9_77
*489 TAP_TAPCELL_ROW_9_78
*490 TAP_TAPCELL_ROW_9_79
*491 _072_
*492 _073_
*493 _074_
*494 _075_
*495 _076_
*496 _077_
*497 _078_
*498 _079_
*499 _080_
*500 _081_
*501 _082_
*502 _083__1
*503 _084_
*504 _085_
*505 _086_
*506 _087_
*507 _088_
*508 _089_
*509 _090_
*510 _091_
*511 _092_
*512 _093_
*513 _094_
*514 _095_
*515 _096_
*516 _097_
*517 _098_
*518 _099_
*519 _100_
*520 _101_
*521 _102_
*522 _103_
*523 _104_
*524 _105_
*525 _106_
*526 _107_
*527 _108_
*528 _109_
*529 _110_
*530 _111_
*531 _112_
*532 _113_
*533 _114_
*534 _115_
*535 _116_
*536 _117_
*537 _118_
*538 _119_
*539 _120_
*540 _121_
*541 _122_
*542 _123_
*543 _124_
*544 _125_
*545 _126_
*546 _127_
*547 _128_
*548 _129_
*549 _130_
*550 _131_
*551 _132_
*552 _133_
*553 _134_
*554 _135_
*555 _136_
*556 _137_
*557 _138_
*558 _139_
*559 _140_
*560 _141_
*561 _142_
*562 _143_
*563 _144_
*564 _145_
*565 _146_
*566 _147_
*567 _148_
*568 _149_
*569 _150_
*570 _151_
*571 _152_
*572 _153_
*573 _154_
*574 _155_
*575 _156_
*576 _157_
*577 _158_
*578 _159_
*579 _160_
*580 _161_
*581 _162_
*582 _163_
*583 _164_
*584 _165_
*585 _166_
*586 _167_
*587 _168_
*588 _169_
*589 _170_
*590 _171_
*591 _172_
*592 clkbuf_0_clk
*593 clkbuf_1_0__f_clk
*594 clkbuf_1_1__f_clk
*595 clkload0
*596 fanout28
*597 fanout30
*598 fanout31
*599 fanout32
*600 fanout33
*601 fanout34
*602 hold1
*603 hold2
*604 hold3
*605 hold4
*606 hold5
*607 hold6
*608 hold7
*609 hold8
*610 input1
*611 input2
*612 max_cap29
*613 output10
*614 output11
*615 output12
*616 output13
*617 output14
*618 output15
*619 output16
*620 output17
*621 output18
*622 output19
*623 output20
*624 output21
*625 output22
*626 output23
*627 output24
*628 output25
*629 output26
*630 output27
*631 output3
*632 output4
*633 output5
*634 output6
*635 output7
*636 output8
*637 output9

*PORTS
adc_out[0] O
adc_out[1] O
adc_out[2] O
adc_out[3] O
adc_out[4] O
adc_out[5] O
adc_out[6] O
adc_out[7] O
clk I
comp I
comparator_clk O
dac_in[0] O
dac_in[1] O
dac_in[2] O
dac_in[3] O
dac_in[4] O
dac_in[5] O
dac_in[6] O
dac_in[7] O
dac_in_n[0] O
dac_in_n[1] O
dac_in_n[2] O
dac_in_n[3] O
dac_in_n[4] O
dac_in_n[5] O
dac_in_n[6] O
dac_in_n[7] O
rst_n I

*D_NET *3 0.00162597
*CONN
*P adc_out[0] O
*I *631:X O *D sky130_fd_sc_hd__buf_2
*CAP
1 adc_out[0] 0.000812986
2 *631:X 0.000812986
3 adc_out[0] adc_out[1] 0
*RES
1 *631:X adc_out[0] 26.3811 
*END

*D_NET *4 0.00131169
*CONN
*P adc_out[1] O
*I *632:X O *D sky130_fd_sc_hd__buf_2
*CAP
1 adc_out[1] 0.000655843
2 *632:X 0.000655843
3 adc_out[1] adc_out[2] 0
4 adc_out[0] adc_out[1] 0
*RES
1 *632:X adc_out[1] 20.6061 
*END

*D_NET *5 0.000616702
*CONN
*P adc_out[2] O
*I *633:X O *D sky130_fd_sc_hd__buf_2
*CAP
1 adc_out[2] 0.000302253
2 *633:X 0.000302253
3 *5:21 0
4 adc_out[2] adc_out[3] 0
5 adc_out[2] *631:A 1.21955e-05
6 adc_out[1] adc_out[2] 0
*RES
1 *633:X adc_out[2] 18.4346 
2 adc_out[2] *5:21 0.0486207 
*END

*D_NET *6 0.000630126
*CONN
*P adc_out[3] O
*I *634:X O *D sky130_fd_sc_hd__buf_2
*CAP
1 adc_out[3] 0.000315063
2 *634:X 0.000315063
3 adc_out[3] adc_out[4] 0
4 adc_out[2] adc_out[3] 0
*RES
1 *634:X adc_out[3] 18.4346 
*END

*D_NET *7 0.000622107
*CONN
*P adc_out[4] O
*I *635:X O *D sky130_fd_sc_hd__buf_2
*CAP
1 adc_out[4] 0.000311054
2 *635:X 0.000311054
3 adc_out[4] adc_out[5] 0
4 adc_out[3] adc_out[4] 0
*RES
1 *635:X adc_out[4] 18.4346 
*END

*D_NET *8 0.000624608
*CONN
*P adc_out[5] O
*I *636:X O *D sky130_fd_sc_hd__buf_2
*CAP
1 adc_out[5] 0.000312304
2 *636:X 0.000312304
3 adc_out[5] adc_out[6] 0
4 adc_out[5] *111:44 0
5 adc_out[4] adc_out[5] 0
*RES
1 *636:X adc_out[5] 18.4346 
*END

*D_NET *9 0.000958743
*CONN
*P adc_out[6] O
*I *637:X O *D sky130_fd_sc_hd__buf_2
*CAP
1 adc_out[6] 0.000390938
2 *637:X 0.000390938
3 adc_out[6] adc_out[7] 0.000145347
4 adc_out[6] *111:44 0
5 adc_out[6] *128:37 3.15196e-05
6 adc_out[5] adc_out[6] 0
*RES
1 *637:X adc_out[6] 19.33 
*END

*D_NET *10 0.00157727
*CONN
*P adc_out[7] O
*I *613:X O *D sky130_fd_sc_hd__buf_2
*CAP
1 adc_out[7] 0.000632332
2 *613:X 0.000632332
3 adc_out[7] comparator_clk 0
4 adc_out[7] dac_in_n[7] 6.76337e-05
5 adc_out[7] *128:37 9.96215e-05
6 adc_out[6] adc_out[7] 0.000145347
*RES
1 *613:X adc_out[7] 24.0456 
*END

*D_NET *11 0.0093556
*CONN
*P clk I
*I *592:A I *D sky130_fd_sc_hd__clkbuf_16
*CAP
1 clk 0.00403237
2 *592:A 0.00403237
3 *592:A *525:C 0.000437467
4 *592:A *532:A_N 0.000166345
5 *592:A *601:A 4.54254e-05
6 *592:A *62:14 0.000126439
7 *592:A *105:10 0.000322069
8 *592:A *135:8 9.15804e-05
9 *592:A *135:20 0.000101545
*RES
1 clk *592:A 44.3429 
*END

*D_NET *12 0.000751213
*CONN
*P comp I
*I *610:A I *D sky130_fd_sc_hd__buf_1
*CAP
1 comp 0.000375606
2 *610:A 0.000375606
*RES
1 comp *610:A 21.8174 
*END

*D_NET *13 0.0019147
*CONN
*P comparator_clk O
*I *614:X O *D sky130_fd_sc_hd__buf_2
*CAP
1 comparator_clk 0.000957351
2 *614:X 0.000957351
3 comparator_clk dac_in_n[6] 0
4 comparator_clk dac_in_n[7] 0
5 adc_out[7] comparator_clk 0
*RES
1 *614:X comparator_clk 25.0692 
*END

*D_NET *14 0.00138349
*CONN
*P dac_in[0] O
*I *615:X O *D sky130_fd_sc_hd__buf_2
*CAP
1 dac_in[0] 0.0005665
2 *615:X 0.0005665
3 dac_in[0] *611:A 0.000250492
4 dac_in[0] *120:10 0
*RES
1 *615:X dac_in[0] 25.6214 
*END

*D_NET *15 0.00110283
*CONN
*P dac_in[1] O
*I *616:X O *D sky130_fd_sc_hd__buf_2
*CAP
1 dac_in[1] 0.000551415
2 *616:X 0.000551415
*RES
1 *616:X dac_in[1] 24.675 
*END

*D_NET *16 0.00139974
*CONN
*P dac_in[2] O
*I *617:X O *D sky130_fd_sc_hd__buf_2
*CAP
1 dac_in[2] 0.000628046
2 *617:X 0.000628046
3 dac_in[2] *113:25 0.000143651
*RES
1 *617:X dac_in[2] 25.6214 
*END

*D_NET *17 0.00110283
*CONN
*P dac_in[3] O
*I *618:X O *D sky130_fd_sc_hd__buf_2
*CAP
1 dac_in[3] 0.000551415
2 *618:X 0.000551415
*RES
1 *618:X dac_in[3] 24.675 
*END

*D_NET *18 0.00110283
*CONN
*P dac_in[4] O
*I *619:X O *D sky130_fd_sc_hd__buf_2
*CAP
1 dac_in[4] 0.000551415
2 *619:X 0.000551415
*RES
1 *619:X dac_in[4] 24.675 
*END

*D_NET *19 0.00110283
*CONN
*P dac_in[5] O
*I *620:X O *D sky130_fd_sc_hd__buf_2
*CAP
1 dac_in[5] 0.000551415
2 *620:X 0.000551415
*RES
1 *620:X dac_in[5] 24.675 
*END

*D_NET *20 0.00110283
*CONN
*P dac_in[6] O
*I *621:X O *D sky130_fd_sc_hd__buf_2
*CAP
1 dac_in[6] 0.000551415
2 *621:X 0.000551415
*RES
1 *621:X dac_in[6] 24.675 
*END

*D_NET *21 0.00134185
*CONN
*P dac_in[7] O
*I *622:X O *D sky130_fd_sc_hd__buf_2
*CAP
1 dac_in[7] 0.000594228
2 *622:X 0.000594228
3 dac_in[7] *619:A 0.000108538
4 dac_in[7] *622:A 4.48583e-05
5 dac_in[7] *120:20 0
*RES
1 *622:X dac_in[7] 26.1929 
*END

*D_NET *22 0.00114298
*CONN
*P dac_in_n[0] O
*I *623:X O *D sky130_fd_sc_hd__buf_2
*CAP
1 dac_in_n[0] 0.000571492
2 *623:X 0.000571492
*RES
1 *623:X dac_in_n[0] 25.0857 
*END

*D_NET *23 0.00114298
*CONN
*P dac_in_n[1] O
*I *624:X O *D sky130_fd_sc_hd__buf_2
*CAP
1 dac_in_n[1] 0.000571492
2 *624:X 0.000571492
*RES
1 *624:X dac_in_n[1] 25.0857 
*END

*D_NET *24 0.00149832
*CONN
*P dac_in_n[2] O
*I *625:X O *D sky130_fd_sc_hd__buf_2
*CAP
1 dac_in_n[2] 0.000712131
2 *625:X 0.000712131
3 dac_in_n[2] *626:A 2.89114e-05
4 dac_in_n[2] *118:36 4.51495e-05
*RES
1 *625:X dac_in_n[2] 26.8536 
*END

*D_NET *25 0.0012485
*CONN
*P dac_in_n[3] O
*I *626:X O *D sky130_fd_sc_hd__buf_2
*CAP
1 dac_in_n[3] 0.000603097
2 *626:X 0.000603097
3 dac_in_n[3] *626:A 7.43578e-06
4 dac_in_n[3] *118:36 3.48705e-05
*RES
1 *626:X dac_in_n[3] 25.2107 
*END

*D_NET *26 0.00113468
*CONN
*P dac_in_n[4] O
*I *627:X O *D sky130_fd_sc_hd__buf_2
*CAP
1 dac_in_n[4] 0.000567341
2 *627:X 0.000567341
3 dac_in_n[4] *116:23 0
*RES
1 *627:X dac_in_n[4] 25.0857 
*END

*D_NET *27 0.00197829
*CONN
*P dac_in_n[5] O
*I *628:X O *D sky130_fd_sc_hd__buf_2
*CAP
1 dac_in_n[5] 0.000899465
2 *628:X 0.000899465
3 dac_in_n[5] *494:A 8.37135e-05
4 dac_in_n[5] *518:A 7.43578e-06
5 dac_in_n[5] *606:A 3.48705e-05
6 dac_in_n[5] *628:A 5.33433e-05
*RES
1 *628:X dac_in_n[5] 29.7286 
*END

*D_NET *28 0.00113013
*CONN
*P dac_in_n[6] O
*I *629:X O *D sky130_fd_sc_hd__buf_2
*CAP
1 dac_in_n[6] 0.000565067
2 *629:X 0.000565067
3 comparator_clk dac_in_n[6] 0
*RES
1 *629:X dac_in_n[6] 25.0857 
*END

*D_NET *29 0.00110037
*CONN
*P dac_in_n[7] O
*I *630:X O *D sky130_fd_sc_hd__buf_2
*CAP
1 dac_in_n[7] 0.000516367
2 *630:X 0.000516367
3 adc_out[7] dac_in_n[7] 6.76337e-05
4 comparator_clk dac_in_n[7] 0
*RES
1 *630:X dac_in_n[7] 24.2643 
*END

*D_NET *30 0.00134984
*CONN
*P rst_n I
*I *611:A I *D sky130_fd_sc_hd__buf_1
*CAP
1 rst_n 0.000528526
2 *611:A 0.000528526
3 *611:A *615:A 4.22908e-05
4 dac_in[0] *611:A 0.000250492
*RES
1 rst_n *611:A 25.6401 
*END

*D_NET *31 0.000382105
*CONN
*I *571:D I *D sky130_fd_sc_hd__dfxtp_1
*I *503:X O *D sky130_fd_sc_hd__and2b_1
*CAP
1 *571:D 0.000106571
2 *503:X 0.000106571
3 *571:D *503:A_N 0.000168963
*RES
1 *503:X *571:D 20.658 
*END

*D_NET *32 0.000607105
*CONN
*I *572:D I *D sky130_fd_sc_hd__dfxtp_1
*I *507:X O *D sky130_fd_sc_hd__o211a_1
*CAP
1 *572:D 0.000218808
2 *507:X 0.000218808
3 *572:D *507:B1 0
4 *572:D *508:B 0
5 *572:D *575:CLK 0
6 *572:D *575:D 0.000153054
7 *572:D *80:81 0
8 *572:D *104:56 1.64343e-05
*RES
1 *507:X *572:D 31.8366 
*END

*D_NET *33 0.000241711
*CONN
*I *573:D I *D sky130_fd_sc_hd__dfxtp_1
*I *509:X O *D sky130_fd_sc_hd__o211a_1
*CAP
1 *573:D 9.98036e-05
2 *509:X 9.98036e-05
3 *573:D *509:B1 0
4 *573:D *104:10 0
5 *573:D *104:12 1.64343e-05
6 *573:D *113:10 2.56694e-05
*RES
1 *509:X *573:D 29.408 
*END

*D_NET *34 0.000358418
*CONN
*I *574:D I *D sky130_fd_sc_hd__dfxtp_1
*I *511:X O *D sky130_fd_sc_hd__o211a_1
*CAP
1 *574:D 0.000124099
2 *511:X 0.000124099
3 *574:D *631:A 7.01199e-06
4 *574:D *104:60 4.79842e-05
5 *574:D *130:21 5.52238e-05
*RES
1 *511:X *574:D 29.9438 
*END

*D_NET *35 0.000340355
*CONN
*I *575:D I *D sky130_fd_sc_hd__dfxtp_1
*I *513:X O *D sky130_fd_sc_hd__o211a_1
*CAP
1 *575:D 8.27733e-05
2 *513:X 8.27733e-05
3 *575:D *575:CLK 4.1331e-06
4 *575:D *79:14 0
5 *575:D *80:39 0
6 *575:D *130:8 1.76204e-05
7 *572:D *575:D 0.000153054
*RES
1 *513:X *575:D 29.7116 
*END

*D_NET *36 0.000363162
*CONN
*I *576:D I *D sky130_fd_sc_hd__dfxtp_1
*I *515:X O *D sky130_fd_sc_hd__o211a_1
*CAP
1 *576:D 0.000148487
2 *515:X 0.000148487
3 *576:D *80:107 4.0342e-06
4 *576:D *104:60 4.1331e-06
5 *576:D *104:69 5.80217e-05
6 *576:D *130:36 0
*RES
1 *515:X *576:D 30.2473 
*END

*D_NET *37 0.00031009
*CONN
*I *577:D I *D sky130_fd_sc_hd__dfxtp_1
*I *517:X O *D sky130_fd_sc_hd__o211a_1
*CAP
1 *577:D 4.98491e-05
2 *517:X 4.98491e-05
3 *577:D *516:A 9.57507e-06
4 *577:D *577:CLK 2.89114e-05
5 *577:D *128:37 0.000171906
*RES
1 *517:X *577:D 20.2295 
*END

*D_NET *38 0.000550537
*CONN
*I *578:D I *D sky130_fd_sc_hd__dfxtp_1
*I *519:X O *D sky130_fd_sc_hd__o211a_1
*CAP
1 *578:D 0.000124212
2 *519:X 0.000124212
3 *578:D *518:B 0.000153054
4 *578:D *519:A2 0
5 *578:D *613:A 0.000149059
*RES
1 *519:X *578:D 30.9438 
*END

*D_NET *39 0.000450337
*CONN
*I *604:A I *D sky130_fd_sc_hd__dlygate4sd3_1
*I *521:X O *D sky130_fd_sc_hd__o211a_1
*CAP
1 *604:A 0.00016708
2 *521:X 0.00016708
3 *604:A *579:CLK 5.52302e-05
4 *604:A *117:45 6.09476e-05
*RES
1 *521:X *604:A 30.1893 
*END

*D_NET *40 0.000584733
*CONN
*I *580:D I *D sky130_fd_sc_hd__dfxtp_1
*I *534:X O *D sky130_fd_sc_hd__o21a_1
*CAP
1 *580:D 6.89889e-05
2 *534:X 6.89889e-05
3 *580:D *109:12 0.000100624
4 *580:D *112:25 0.000346131
*RES
1 *534:X *580:D 21.8723 
*END

*D_NET *41 0.0014313
*CONN
*I *581:D I *D sky130_fd_sc_hd__dfxtp_1
*I *539:Y O *D sky130_fd_sc_hd__a31oi_1
*CAP
1 *581:D 0.000612476
2 *539:Y 0.000612476
3 *581:D *581:CLK 8.95186e-05
4 *581:D *79:10 0.000116825
5 *581:D *90:10 0
*RES
1 *539:Y *581:D 36.35 
*END

*D_NET *42 0.0016629
*CONN
*I *582:D I *D sky130_fd_sc_hd__dfxtp_1
*I *544:X O *D sky130_fd_sc_hd__o31a_1
*CAP
1 *582:D 0.000611961
2 *544:X 0.000611961
3 *582:D *544:A2 0
4 *582:D *544:A3 8.00806e-05
5 *582:D *114:35 0.000358895
*RES
1 *544:X *582:D 40.6357 
*END

*D_NET *43 0.00646497
*CONN
*I *583:D I *D sky130_fd_sc_hd__dfxtp_1
*I *548:X O *D sky130_fd_sc_hd__o21a_1
*CAP
1 *583:D 0.000479695
2 *548:X 0.00128077
3 *43:22 0.00176046
4 *583:D *583:CLK 0.00013001
5 *583:D *115:10 0.000171899
6 *583:D *115:28 0.00110674
7 *43:22 *562:B1 0
8 *43:22 *586:CLK 0.000708883
9 *43:22 *586:D 5.95099e-05
10 *43:22 *587:CLK 2.28598e-05
11 *43:22 *587:D 1.64343e-05
12 *43:22 *56:40 0.000357054
13 *43:22 *60:42 6.42242e-05
14 *43:22 *89:83 3.34295e-05
15 *43:22 *115:28 0.000257894
16 *43:22 *117:20 1.5107e-05
*RES
1 *548:X *43:22 38.8536 
2 *43:22 *583:D 21.1973 
*END

*D_NET *44 0.00211137
*CONN
*I *584:D I *D sky130_fd_sc_hd__dfxtp_1
*I *552:Y O *D sky130_fd_sc_hd__a31oi_1
*CAP
1 *584:D 0.000869424
2 *552:Y 0.000869424
3 *584:D *594:A 0.000270326
4 *584:D *104:96 0.000102197
*RES
1 *552:Y *584:D 31.0509 
*END

*D_NET *45 0.00117938
*CONN
*I *585:D I *D sky130_fd_sc_hd__dfxtp_1
*I *556:Y O *D sky130_fd_sc_hd__a31oi_1
*CAP
1 *585:D 0.00016886
2 *556:Y 0.00016886
3 *585:D *493:A 9.95285e-05
4 *585:D *521:A1 0.000173823
5 *585:D *535:B1 5.01213e-05
6 *585:D *561:B1 0.000269428
7 *585:D *585:CLK 0.00013001
8 *585:D *99:30 1.02504e-05
9 *585:D *117:20 8.70252e-05
10 *585:D *119:23 2.14757e-05
*RES
1 *556:Y *585:D 33.8545 
*END

*D_NET *46 0.00032494
*CONN
*I *586:D I *D sky130_fd_sc_hd__dfxtp_1
*I *560:X O *D sky130_fd_sc_hd__o31a_1
*CAP
1 *586:D 8.66976e-05
2 *560:X 8.66976e-05
3 *586:D *586:CLK 5.95099e-05
4 *586:D *115:28 3.25247e-05
5 *43:22 *586:D 5.95099e-05
*RES
1 *560:X *586:D 29.5152 
*END

*D_NET *47 0.000276854
*CONN
*I *587:D I *D sky130_fd_sc_hd__dfxtp_1
*I *562:X O *D sky130_fd_sc_hd__a211o_1
*CAP
1 *587:D 7.81377e-05
2 *562:X 7.81377e-05
3 *587:D *56:40 0.000100823
4 *587:D *117:20 3.32132e-06
5 *43:22 *587:D 1.64343e-05
*RES
1 *562:X *587:D 29.1045 
*END

*D_NET *48 0.000368459
*CONN
*I *588:D I *D sky130_fd_sc_hd__dfxtp_1
*I *564:X O *D sky130_fd_sc_hd__and3_1
*CAP
1 *588:D 9.08169e-05
2 *564:X 9.08169e-05
3 *588:D *588:CLK 0.000102545
4 *588:D *129:22 8.42801e-05
*RES
1 *564:X *588:D 29.7473 
*END

*D_NET *49 0.000508976
*CONN
*I *589:D I *D sky130_fd_sc_hd__dfxtp_1
*I *566:X O *D sky130_fd_sc_hd__and3_1
*CAP
1 *589:D 8.15742e-05
2 *566:X 8.15742e-05
3 *589:D *567:B 3.07996e-05
4 *589:D *89:22 0.00017836
5 *589:D *93:14 1.15172e-05
6 *589:D *103:18 0.00012515
*RES
1 *566:X *589:D 21.2652 
*END

*D_NET *50 0.000564197
*CONN
*I *590:D I *D sky130_fd_sc_hd__dfxtp_2
*I *568:X O *D sky130_fd_sc_hd__and3_1
*CAP
1 *590:D 0.000157668
2 *568:X 0.000157668
3 *590:D *597:A 3.92854e-05
4 *590:D *89:42 5.52302e-05
5 *590:D *103:26 8.95186e-05
6 *590:D *108:18 6.48264e-05
7 *590:D *129:40 0
*RES
1 *568:X *590:D 30.6357 
*END

*D_NET *51 0.00160199
*CONN
*I *591:D I *D sky130_fd_sc_hd__dfxtp_1
*I *570:Y O *D sky130_fd_sc_hd__a21oi_1
*CAP
1 *591:D 0.00037476
2 *570:Y 0.00037476
3 *591:D *530:A2 0
4 *591:D *570:A1 3.92854e-05
5 *591:D *597:A 9.22948e-05
6 *591:D *89:42 8.14438e-05
7 *591:D *103:28 0.000585264
8 *591:D *108:18 5.41794e-05
*RES
1 *570:Y *591:D 37.1759 
*END

*D_NET *52 0.0015286
*CONN
*I *559:B1 I *D sky130_fd_sc_hd__o211a_1
*I *543:C I *D sky130_fd_sc_hd__and4bb_1
*I *536:X O *D sky130_fd_sc_hd__and4bb_1
*CAP
1 *559:B1 0.000208111
2 *543:C 0.000181113
3 *536:X 0
4 *52:4 0.000389224
5 *543:C *543:B_N 0.000139913
6 *543:C *543:D 4.884e-05
7 *559:B1 *536:A_N 9.46929e-05
8 *559:B1 *543:B_N 0.0003865
9 *559:B1 *559:A2 8.02107e-05
*RES
1 *536:X *52:4 9.3 
2 *52:4 *543:C 12.7107 
3 *52:4 *559:B1 14.7821 
*END

*D_NET *53 0.00166298
*CONN
*I *539:A2 I *D sky130_fd_sc_hd__a31oi_1
*I *537:X O *D sky130_fd_sc_hd__or4_1
*CAP
1 *539:A2 0.000551297
2 *537:X 0.000551297
3 *539:A2 *504:B 1.32552e-05
4 *539:A2 *504:D_N 9.90431e-05
5 *539:A2 *539:A3 3.18676e-05
6 *539:A2 *79:10 0.000370752
7 *539:A2 *105:14 3.54723e-05
8 *539:A2 *107:81 9.99644e-06
*RES
1 *537:X *539:A2 27.8143 
*END

*D_NET *54 0.000393878
*CONN
*I *539:A3 I *D sky130_fd_sc_hd__a31oi_1
*I *538:Y O *D sky130_fd_sc_hd__nand3_1
*CAP
1 *539:A3 9.27865e-05
2 *538:Y 9.27865e-05
3 *539:A3 *500:A 0.000123137
4 *539:A3 *79:10 5.33005e-05
5 *539:A3 *134:27 0
6 *539:A2 *539:A3 3.18676e-05
*RES
1 *538:Y *539:A3 29.7786 
*END

*D_NET *55 0.00136449
*CONN
*I *544:A1 I *D sky130_fd_sc_hd__o31a_1
*I *540:X O *D sky130_fd_sc_hd__o41a_1
*CAP
1 *544:A1 0.000457548
2 *540:X 0.000457548
3 *544:A1 *533:A2 9.90367e-05
4 *544:A1 *533:B1 0.00014285
5 *544:A1 *533:C1 7.32955e-05
6 *544:A1 *544:A2 1.82549e-05
7 *544:A1 *544:A3 9.87505e-05
8 *544:A1 *544:B1 3.54266e-06
9 *544:A1 *109:12 1.36608e-05
*RES
1 *540:X *544:A1 35.2964 
*END

*D_NET *56 0.00682773
*CONN
*I *561:A1 I *D sky130_fd_sc_hd__a21oi_1
*I *545:A2 I *D sky130_fd_sc_hd__a21oi_1
*I *547:A3 I *D sky130_fd_sc_hd__a32o_1
*I *558:A I *D sky130_fd_sc_hd__and2_1
*I *542:B I *D sky130_fd_sc_hd__and2_1
*I *541:Y O *D sky130_fd_sc_hd__nor3b_2
*CAP
1 *561:A1 0
2 *545:A2 0.000357803
3 *547:A3 2.86622e-05
4 *558:A 0
5 *542:B 0.000150339
6 *541:Y 0
7 *56:44 0.000486085
8 *56:40 0.00047807
9 *56:25 0.00106666
10 *56:4 0.000838545
11 *542:B *542:A 0.000100625
12 *542:B *114:35 3.48705e-05
13 *545:A2 *545:A1 3.27359e-05
14 *545:A2 *547:B2 9.54798e-06
15 *545:A2 *551:A1 7.46146e-05
16 *545:A2 *556:A2 5.02092e-05
17 *545:A2 *94:31 1.7765e-05
18 *545:A2 *120:20 0
19 *547:A3 *547:A2 5.52302e-05
20 *547:A3 *548:A1 5.17614e-05
21 *547:A3 *78:53 1.98839e-05
22 *56:25 *531:A_N 7.32272e-05
23 *56:25 *541:A 0.000144773
24 *56:25 *541:B 9.90367e-05
25 *56:25 *542:A 4.58976e-05
26 *56:25 *557:B1 7.6644e-05
27 *56:25 *560:A1 9.90367e-05
28 *56:25 *560:A2 0.000155331
29 *56:25 *560:A3 1.39841e-05
30 *56:25 *560:B1 0.000230475
31 *56:25 *562:A2 0.000155915
32 *56:25 *78:40 0.000314139
33 *56:25 *114:35 2.05757e-05
34 *56:25 *133:91 2.90075e-05
35 *56:40 *562:A2 0.000358971
36 *56:40 *562:B1 0.000207134
37 *56:40 *60:42 0.000142856
38 *56:40 *60:49 4.18895e-05
39 *56:40 *78:40 0.000190917
40 *56:40 *103:106 0
41 *56:40 *117:20 4.8035e-05
42 *56:44 *547:A2 3.10885e-05
43 *56:44 *60:42 0
44 *56:44 *120:20 3.7519e-05
45 *587:D *56:40 0.000100823
46 *43:22 *56:40 0.000357054
*RES
1 *541:Y *56:4 9.3 
2 *56:4 *542:B 12.3179 
3 *56:4 *56:25 24.2679 
4 *56:25 *558:A 9.3 
5 *56:25 *56:40 20.5357 
6 *56:40 *56:44 6.44643 
7 *56:44 *547:A3 14.7464 
8 *56:44 *545:A2 22.3507 
9 *56:40 *561:A1 9.3 
*END

*D_NET *57 0.000963467
*CONN
*I *544:A2 I *D sky130_fd_sc_hd__o31a_1
*I *542:X O *D sky130_fd_sc_hd__and2_1
*CAP
1 *544:A2 0.000240396
2 *542:X 0.000240396
3 *544:A2 *541:C_N 0
4 *544:A2 *543:A_N 3.60626e-05
5 *544:A2 *543:D 0.000170952
6 *544:A2 *544:A3 5.71472e-05
7 *544:A2 *544:B1 5.54856e-05
8 *544:A2 *109:12 0.000144773
9 *544:A1 *544:A2 1.82549e-05
10 *582:D *544:A2 0
*RES
1 *542:X *544:A2 33.6357 
*END

*D_NET *58 0.000544386
*CONN
*I *544:A3 I *D sky130_fd_sc_hd__o31a_1
*I *543:X O *D sky130_fd_sc_hd__and4bb_1
*CAP
1 *544:A3 0.00011888
2 *543:X 0.00011888
3 *544:A3 *534:B1 5.52238e-05
4 *544:A3 *544:B1 0
5 *544:A3 *109:12 1.5424e-05
6 *544:A3 *112:25 0
7 *544:A1 *544:A3 9.87505e-05
8 *544:A2 *544:A3 5.71472e-05
9 *582:D *544:A3 8.00806e-05
*RES
1 *543:X *544:A3 30.9036 
*END

*D_NET *59 0.000962294
*CONN
*I *548:A1 I *D sky130_fd_sc_hd__o21a_1
*I *545:Y O *D sky130_fd_sc_hd__a21oi_1
*CAP
1 *548:A1 0.000183041
2 *545:Y 0.000183041
3 *548:A1 *545:B1 7.43578e-06
4 *548:A1 *547:A2 1.39726e-05
5 *548:A1 *547:B1 1.02337e-05
6 *548:A1 *548:A2 5.71472e-05
7 *548:A1 *78:53 3.05494e-05
8 *548:A1 *78:68 7.10003e-05
9 *548:A1 *94:37 0.000354111
10 *547:A3 *548:A1 5.17614e-05
*RES
1 *545:Y *548:A1 24.0821 
*END

*D_NET *60 0.0105033
*CONN
*I *547:B1 I *D sky130_fd_sc_hd__a32o_1
*I *551:A2 I *D sky130_fd_sc_hd__a21o_1
*I *553:A2 I *D sky130_fd_sc_hd__a21o_1
*I *550:B I *D sky130_fd_sc_hd__nand2_1
*I *555:C I *D sky130_fd_sc_hd__nand3_1
*I *561:A2 I *D sky130_fd_sc_hd__a21oi_1
*I *558:B I *D sky130_fd_sc_hd__and2_1
*I *549:C_N I *D sky130_fd_sc_hd__or3b_1
*I *546:Y O *D sky130_fd_sc_hd__nor2_2
*CAP
1 *547:B1 0.000126573
2 *551:A2 1.16062e-05
3 *553:A2 0
4 *550:B 0.000413125
5 *555:C 0
6 *561:A2 0
7 *558:B 0.000288342
8 *549:C_N 0.000334535
9 *546:Y 0
10 *60:87 1.16062e-05
11 *60:74 0.000856978
12 *60:57 0.000670829
13 *60:49 0.000429617
14 *60:42 0.000520946
15 *60:8 0.00127702
16 *60:4 0.00109902
17 *547:B1 *500:A 0
18 *547:B1 *547:A1 3.22304e-05
19 *547:B1 *78:68 2.39852e-05
20 *547:B1 *120:20 5.74562e-05
21 *549:C_N *549:A 0.000138881
22 *549:C_N *557:A1 0
23 *549:C_N *557:A3 0
24 *549:C_N *114:60 7.03295e-05
25 *550:B *551:A1 1.66706e-05
26 *550:B *552:A2 5.16489e-05
27 *550:B *552:A3 0.000154179
28 *550:B *596:A 5.71472e-05
29 *550:B *99:19 0
30 *550:B *113:23 0
31 *550:B *114:62 2.89114e-05
32 *550:B *126:24 1.92568e-05
33 *551:A2 *493:A 5.52302e-05
34 *551:A2 *561:B1 5.52302e-05
35 *558:B *557:A1 0
36 *558:B *557:A3 0
37 *558:B *557:B1 5.70731e-05
38 *558:B *560:B1 2.89114e-05
39 *558:B *562:A2 5.52302e-05
40 *558:B *78:40 0
41 *558:B *103:106 0
42 *60:8 *593:A 9.80173e-05
43 *60:8 *91:36 0.000742535
44 *60:8 *132:77 5.97398e-05
45 *60:42 *547:A2 0
46 *60:42 *554:A 0.000121573
47 *60:42 *562:B1 0.000142856
48 *60:42 *89:83 5.96917e-05
49 *60:42 *94:31 0
50 *60:42 *120:20 0
51 *60:49 *561:B1 6.71755e-05
52 *60:49 *562:B1 0.000110008
53 *60:49 *119:23 8.51775e-05
54 *60:57 *500:A 0.00014285
55 *60:57 *535:B1 6.73091e-05
56 *60:57 *556:A3 1.99099e-05
57 *60:57 *561:B1 0.00066774
58 *60:57 *119:23 0.000246519
59 *60:74 *551:A1 0.000670384
60 *548:A1 *547:B1 1.02337e-05
61 *43:22 *60:42 6.42242e-05
62 *56:40 *60:42 0.000142856
63 *56:40 *60:49 4.18895e-05
64 *56:44 *60:42 0
*RES
1 *546:Y *60:4 9.3 
2 *60:4 *60:8 13.6607 
3 *60:8 *549:C_N 19.8536 
4 *60:8 *558:B 18.7107 
5 *60:4 *60:42 17.5179 
6 *60:42 *561:A2 9.3 
7 *60:42 *60:49 2.58929 
8 *60:49 *60:57 13.1607 
9 *60:57 *555:C 13.8 
10 *60:57 *60:74 8.15272 
11 *60:74 *550:B 22.05 
12 *60:74 *60:87 4.5 
13 *60:87 *553:A2 9.3 
14 *60:87 *551:A2 9.83571 
15 *60:49 *547:B1 20.4875 
*END

*D_NET *61 0.000197378
*CONN
*I *548:A2 I *D sky130_fd_sc_hd__o21a_1
*I *547:X O *D sky130_fd_sc_hd__a32o_1
*CAP
1 *548:A2 6.75161e-05
2 *547:X 6.75161e-05
3 *548:A2 *78:53 5.19842e-06
4 *548:A1 *548:A2 5.71472e-05
*RES
1 *547:X *548:A2 19.5464 
*END

*D_NET *62 0.00513119
*CONN
*I *552:A1 I *D sky130_fd_sc_hd__a31oi_1
*I *549:X O *D sky130_fd_sc_hd__or3b_1
*CAP
1 *552:A1 0
2 *549:X 0.00140997
3 *62:14 0.00140997
4 *62:14 *552:B1 4.38128e-05
5 *62:14 *593:A 0.000305702
6 *62:14 *594:A 4.88637e-05
7 *62:14 *601:A 0.000128154
8 *62:14 *90:59 0.000358977
9 *62:14 *114:60 0.0012993
10 *592:A *62:14 0.000126439
*RES
1 *549:X *62:14 42.7821 
2 *62:14 *552:A1 9.3 
*END

*D_NET *63 0.000587845
*CONN
*I *552:A2 I *D sky130_fd_sc_hd__a31oi_1
*I *550:Y O *D sky130_fd_sc_hd__nand2_1
*CAP
1 *552:A2 0.000191548
2 *550:Y 0.000191548
3 *552:A2 *552:A3 1.02504e-05
4 *552:A2 *99:19 0
5 *552:A2 *114:62 0.00014285
6 *550:B *552:A2 5.16489e-05
*RES
1 *550:Y *552:A2 30.9036 
*END

*D_NET *64 0.00136856
*CONN
*I *552:A3 I *D sky130_fd_sc_hd__a31oi_1
*I *551:X O *D sky130_fd_sc_hd__a21o_1
*CAP
1 *552:A3 0.000423473
2 *551:X 0.000423473
3 *552:A3 *556:B1 0
4 *552:A3 *561:B1 0.000278819
5 *552:A3 *126:24 7.83659e-05
6 *550:B *552:A3 0.000154179
7 *552:A2 *552:A3 1.02504e-05
*RES
1 *551:X *552:A3 35.0821 
*END

*D_NET *65 0.000463859
*CONN
*I *556:A1 I *D sky130_fd_sc_hd__a31oi_1
*I *553:X O *D sky130_fd_sc_hd__a21o_1
*CAP
1 *556:A1 0.000125196
2 *553:X 0.000125196
3 *556:A1 *493:A 4.72917e-05
4 *556:A1 *555:B 1.38323e-05
5 *556:A1 *556:A2 5.52238e-05
6 *556:A1 *556:B1 9.71197e-05
*RES
1 *553:X *556:A1 21.1893 
*END

*D_NET *66 0.0021428
*CONN
*I *556:A2 I *D sky130_fd_sc_hd__a31oi_1
*I *554:X O *D sky130_fd_sc_hd__or4_1
*CAP
1 *556:A2 0.000566972
2 *554:X 0.000566972
3 *556:A2 *535:B1 6.39578e-05
4 *556:A2 *551:A1 0.000449052
5 *556:A2 *555:B 9.71197e-05
6 *556:A2 *92:12 5.7836e-06
7 *556:A2 *99:30 0.000131868
8 *556:A2 *115:52 0.000133441
9 *556:A2 *120:20 2.21972e-05
10 *545:A2 *556:A2 5.02092e-05
11 *556:A1 *556:A2 5.52238e-05
*RES
1 *554:X *556:A2 38.9262 
*END

*D_NET *67 0.000658706
*CONN
*I *556:A3 I *D sky130_fd_sc_hd__a31oi_1
*I *555:Y O *D sky130_fd_sc_hd__nand3_1
*CAP
1 *556:A3 0.000203494
2 *555:Y 0.000203494
3 *556:A3 *500:A 3.25224e-05
4 *556:A3 *535:B1 0
5 *556:A3 *545:B1 8.87196e-05
6 *556:A3 *555:B 0.000110567
7 *556:A3 *78:68 0
8 *60:57 *556:A3 1.99099e-05
*RES
1 *555:Y *556:A3 31.3857 
*END

*D_NET *68 0.000505846
*CONN
*I *560:A1 I *D sky130_fd_sc_hd__o31a_1
*I *557:X O *D sky130_fd_sc_hd__o41a_1
*CAP
1 *560:A1 0.000106803
2 *557:X 0.000106803
3 *560:A1 *531:A_N 0
4 *560:A1 *557:B1 0
5 *560:A1 *560:A2 5.52238e-05
6 *560:A1 *560:A3 5.78991e-05
7 *560:A1 *78:40 8.00806e-05
8 *560:A1 *115:28 0
9 *56:25 *560:A1 9.90367e-05
*RES
1 *557:X *560:A1 30.4929 
*END

*D_NET *69 0.00207255
*CONN
*I *562:A2 I *D sky130_fd_sc_hd__a211o_1
*I *560:A2 I *D sky130_fd_sc_hd__o31a_1
*I *558:X O *D sky130_fd_sc_hd__and2_1
*CAP
1 *562:A2 0.000122718
2 *560:A2 9.34881e-05
3 *558:X 0
4 *69:4 0.000216206
5 *560:A2 *560:A3 5.52238e-05
6 *560:A2 *560:B1 0.000331568
7 *560:A2 *78:40 0.000119203
8 *562:A2 *560:B1 0.000336032
9 *562:A2 *78:40 1.74352e-05
10 *558:B *562:A2 5.52302e-05
11 *560:A1 *560:A2 5.52238e-05
12 *56:25 *560:A2 0.000155331
13 *56:25 *562:A2 0.000155915
14 *56:40 *562:A2 0.000358971
*RES
1 *558:X *69:4 9.3 
2 *69:4 *560:A2 13.5321 
3 *69:4 *562:A2 15.3179 
*END

*D_NET *70 0.000706219
*CONN
*I *560:A3 I *D sky130_fd_sc_hd__o31a_1
*I *559:X O *D sky130_fd_sc_hd__o211a_1
*CAP
1 *560:A3 0.000188918
2 *559:X 0.000188918
3 *560:A3 *531:A_N 0.00010326
4 *560:A3 *107:53 9.80173e-05
5 *560:A1 *560:A3 5.78991e-05
6 *560:A2 *560:A3 5.52238e-05
7 *56:25 *560:A3 1.39841e-05
*RES
1 *559:X *560:A3 31.2429 
*END

*D_NET *71 0.00131573
*CONN
*I *562:B1 I *D sky130_fd_sc_hd__a211o_1
*I *561:Y O *D sky130_fd_sc_hd__a21oi_1
*CAP
1 *562:B1 0.000246734
2 *561:Y 0.000246734
3 *562:B1 *562:C1 1.02504e-05
4 *562:B1 *89:83 7.79781e-06
5 *562:B1 *117:20 0.000146582
6 *562:B1 *119:23 0.000197634
7 *43:22 *562:B1 0
8 *56:40 *562:B1 0.000207134
9 *60:42 *562:B1 0.000142856
10 *60:49 *562:B1 0.000110008
*RES
1 *561:Y *562:B1 35.1312 
*END

*D_NET *72 0.000338358
*CONN
*I *564:C I *D sky130_fd_sc_hd__and3_1
*I *563:X O *D sky130_fd_sc_hd__or2_1
*CAP
1 *564:C 9.29826e-05
2 *563:X 9.29826e-05
3 *564:C *89:12 9.52453e-05
4 *564:C *89:22 5.71472e-05
*RES
1 *563:X *564:C 20.0286 
*END

*D_NET *73 0.000618574
*CONN
*I *566:C I *D sky130_fd_sc_hd__and3_1
*I *565:X O *D sky130_fd_sc_hd__a21o_1
*CAP
1 *566:C 0.000204165
2 *565:X 0.000204165
3 *566:C *528:C 2.44318e-05
4 *566:C *89:22 1.95435e-05
5 *566:C *103:26 0.00016627
*RES
1 *565:X *566:C 30.6 
*END

*D_NET *74 0.00150216
*CONN
*I *568:C I *D sky130_fd_sc_hd__and3_1
*I *567:Y O *D sky130_fd_sc_hd__nand2_1
*CAP
1 *568:C 0.000361934
2 *567:Y 0.000361934
3 *568:C *528:D 0.000185643
4 *568:C *89:36 0.00038503
5 *568:C *89:42 0.00010858
6 *568:C *129:40 4.18895e-05
7 *568:C *129:46 5.71472e-05
*RES
1 *567:Y *568:C 26.3321 
*END

*D_NET *75 0.000813076
*CONN
*I *570:A2 I *D sky130_fd_sc_hd__a21oi_1
*I *569:Y O *D sky130_fd_sc_hd__nand2_1
*CAP
1 *570:A2 0.000266803
2 *569:Y 0.000266803
3 *570:A2 *530:A1 5.71472e-05
4 *570:A2 *530:A2 7.83659e-05
5 *570:A2 *569:B 5.62995e-05
6 *570:A2 *570:A1 0
7 *570:A2 *95:12 3.18676e-05
8 *570:A2 *112:25 1.02504e-05
9 *570:A2 *112:31 4.5539e-05
*RES
1 *569:Y *570:A2 32.2607 
*END

*D_NET *76 0.00564695
*CONN
*I *537:B I *D sky130_fd_sc_hd__or4_1
*I *559:A1 I *D sky130_fd_sc_hd__o211a_1
*I *540:A2 I *D sky130_fd_sc_hd__o41a_1
*I *567:A I *D sky130_fd_sc_hd__nand2_1
*I *491:Y O *D sky130_fd_sc_hd__inv_2
*CAP
1 *537:B 0.000125894
2 *559:A1 0.000234466
3 *540:A2 0
4 *567:A 2.42769e-05
5 *491:Y 0
6 *76:27 0.000551762
7 *76:14 0.00155057
8 *76:4 0.00133489
9 *537:B *504:D_N 0.00014285
10 *537:B *537:C 2.14757e-05
11 *559:A1 *536:B_N 0
12 *559:A1 *559:A2 0.000129901
13 *559:A1 *559:C1 7.55769e-05
14 *559:A1 *114:35 0.000168777
15 *559:A1 *115:28 0
16 *559:A1 *132:60 1.3142e-05
17 *559:A1 *133:64 5.62709e-05
18 *567:A *528:D 2.46649e-05
19 *567:A *103:26 0
20 *567:A *133:12 0
21 *76:14 *524:A 0
22 *76:14 *89:12 0
23 *76:14 *89:22 0.000104613
24 *76:14 *91:12 2.56694e-05
25 *76:14 *112:31 0.000613035
26 *76:27 *528:D 7.55515e-05
27 *76:27 *132:60 3.4323e-05
28 *76:27 *133:12 0
29 *76:27 *133:40 0.000329993
30 *76:27 *133:64 9.25014e-06
31 *76:27 *135:47 0
32 *76:27 *135:99 0
*RES
1 *491:Y *76:4 9.3 
2 *76:4 *76:14 15.3804 
3 *76:14 *567:A 14.3804 
4 *76:14 *76:27 6.88393 
5 *76:27 *540:A2 13.8 
6 *76:27 *559:A1 18.4429 
7 *76:4 *537:B 11.0679 
*END

*D_NET *77 0.00250625
*CONN
*I *533:A1 I *D sky130_fd_sc_hd__o2111a_1
*I *492:Y O *D sky130_fd_sc_hd__inv_2
*CAP
1 *533:A1 0.000607086
2 *492:Y 0.000607086
3 *533:A1 *501:A 0.000150625
4 *533:A1 *533:A2 9.60875e-05
5 *533:A1 *533:C1 4.87854e-05
6 *533:A1 *557:A3 0
7 *533:A1 *78:40 0
8 *533:A1 *94:12 0.000125724
9 *533:A1 *107:53 0.000437756
10 *533:A1 *109:18 1.21289e-05
11 *533:A1 *114:60 9.60939e-05
12 *533:A1 *135:64 6.19181e-05
13 *533:A1 *135:99 0.000262956
*RES
1 *492:Y *533:A1 48.1179 
*END

*D_NET *78 0.00907676
*CONN
*I *555:A I *D sky130_fd_sc_hd__nand3_1
*I *538:A I *D sky130_fd_sc_hd__nand3_1
*I *547:A1 I *D sky130_fd_sc_hd__a32o_1
*I *562:A1 I *D sky130_fd_sc_hd__a211o_1
*I *559:C1 I *D sky130_fd_sc_hd__o211a_1
*I *533:A2 I *D sky130_fd_sc_hd__o2111a_1
*I *501:Y O *D sky130_fd_sc_hd__inv_2
*CAP
1 *555:A 6.0158e-05
2 *538:A 0.000268777
3 *547:A1 2.84945e-05
4 *562:A1 2.23854e-05
5 *559:C1 6.43933e-05
6 *533:A2 0.000201412
7 *501:Y 0
8 *78:68 0.0006818
9 *78:53 0.000840537
10 *78:40 0.001413
11 *78:6 0.000609104
12 *78:4 0.00127474
13 *533:A2 *533:C1 4.39388e-05
14 *533:A2 *540:A4 4.42012e-05
15 *533:A2 *540:B1 1.86816e-05
16 *538:A *500:A 0.000587915
17 *538:A *538:B 0.000405038
18 *538:A *545:A1 0
19 *538:A *94:43 0
20 *547:A1 *120:20 5.31101e-05
21 *555:A *545:B1 0.000139907
22 *559:C1 *541:B 2.04866e-05
23 *559:C1 *98:10 9.25014e-06
24 *559:C1 *114:35 2.40966e-05
25 *559:C1 *133:64 7.40526e-05
26 *78:6 *540:A4 0.000464266
27 *78:40 *531:A_N 0
28 *78:40 *540:A4 8.76257e-05
29 *78:40 *557:A4 5.41352e-05
30 *78:40 *557:B1 0
31 *78:40 *560:B1 9.22103e-06
32 *78:40 *135:99 0
33 *78:53 *547:A2 9.71197e-05
34 *78:53 *548:B1 0.000104494
35 *78:53 *560:B1 0.000122091
36 *78:68 *545:B1 7.70047e-05
37 *78:68 *555:B 0
38 *533:A1 *533:A2 9.60875e-05
39 *533:A1 *78:40 0
40 *544:A1 *533:A2 9.90367e-05
41 *547:A3 *78:53 1.98839e-05
42 *547:B1 *547:A1 3.22304e-05
43 *547:B1 *78:68 2.39852e-05
44 *548:A1 *78:53 3.05494e-05
45 *548:A1 *78:68 7.10003e-05
46 *548:A2 *78:53 5.19842e-06
47 *556:A3 *78:68 0
48 *558:B *78:40 0
49 *559:A1 *559:C1 7.55769e-05
50 *560:A1 *78:40 8.00806e-05
51 *560:A2 *78:40 0.000119203
52 *562:A2 *78:40 1.74352e-05
53 *56:25 *78:40 0.000314139
54 *56:40 *78:40 0.000190917
*RES
1 *501:Y *78:4 9.3 
2 *78:4 *78:6 4.64286 
3 *78:6 *533:A2 13.1571 
4 *78:6 *559:C1 19.9429 
5 *78:4 *78:40 23.3036 
6 *78:40 *562:A1 9.72857 
7 *78:40 *78:53 7.85714 
8 *78:53 *547:A1 19.0321 
9 *78:53 *78:68 4.96429 
10 *78:68 *538:A 26.0143 
11 *78:68 *555:A 10.6571 
*END

*D_NET *79 0.00953969
*CONN
*I *512:B I *D sky130_fd_sc_hd__or2_1
*I *520:B I *D sky130_fd_sc_hd__or2_1
*I *612:A I *D sky130_fd_sc_hd__buf_1
*I *508:B I *D sky130_fd_sc_hd__or2_1
*I *504:Y O *D sky130_fd_sc_hd__nor4b_1
*CAP
1 *512:B 0.000224032
2 *520:B 0.000458167
3 *612:A 0
4 *508:B 0.000502166
5 *504:Y 0.00145082
6 *79:36 0.00120874
7 *79:14 0.000610179
8 *79:10 0.00208538
9 *508:B *508:A 0.000363837
10 *508:B *575:CLK 5.57914e-05
11 *508:B *632:A 0.000173328
12 *508:B *142:10 0
13 *512:B *507:C1 0
14 *512:B *512:A 0.000289546
15 *512:B *136:70 9.22103e-06
16 *512:B *148:12 0.000144773
17 *520:B *520:A 5.52302e-05
18 *520:B *596:A 0.000222892
19 *520:B *111:10 0.00015304
20 *520:B *111:44 0.000106403
21 *520:B *116:10 0
22 *520:B *117:45 1.92905e-05
23 *520:B *136:83 0
24 *79:10 *105:14 5.33005e-05
25 *79:10 *134:27 0.000106953
26 *79:10 *136:57 1.58163e-05
27 *79:14 *503:B 1.17968e-05
28 *79:14 *521:A2 1.12323e-05
29 *79:14 *575:CLK 4.1331e-06
30 *79:14 *80:39 0.000209074
31 *79:14 *136:53 0.000125371
32 *79:14 *136:118 5.54856e-05
33 *79:36 *507:C1 5.62995e-05
34 *79:36 *513:A1 1.66856e-05
35 *79:36 *513:A2 6.7e-06
36 *79:36 *513:B1 0.000187391
37 *79:36 *136:57 5.74499e-06
38 *539:A2 *79:10 0.000370752
39 *539:A3 *79:10 5.33005e-05
40 *572:D *508:B 0
41 *575:D *79:14 0
42 *581:D *79:10 0.000116825
*RES
1 *504:Y *79:10 34.1036 
2 *79:10 *79:14 7.66071 
3 *79:14 *508:B 24.1393 
4 *79:14 *612:A 13.8 
5 *79:10 *79:36 7.125 
6 *79:36 *520:B 28.0679 
7 *79:36 *512:B 13.9786 
*END

*D_NET *80 0.0142336
*CONN
*I *507:A2 I *D sky130_fd_sc_hd__o211a_1
*I *519:A2 I *D sky130_fd_sc_hd__o211a_1
*I *517:A2 I *D sky130_fd_sc_hd__o211a_1
*I *515:A2 I *D sky130_fd_sc_hd__o211a_1
*I *511:A2 I *D sky130_fd_sc_hd__o211a_1
*I *513:A2 I *D sky130_fd_sc_hd__o211a_1
*I *521:A2 I *D sky130_fd_sc_hd__o211a_1
*I *509:A2 I *D sky130_fd_sc_hd__o211a_1
*I *523:B I *D sky130_fd_sc_hd__nand2_2
*I *522:B I *D sky130_fd_sc_hd__and2_2
*I *505:X O *D sky130_fd_sc_hd__or4b_4
*CAP
1 *507:A2 0
2 *519:A2 0.000300536
3 *517:A2 0.000135298
4 *515:A2 0
5 *511:A2 9.67634e-05
6 *513:A2 1.14508e-05
7 *521:A2 0.000603731
8 *509:A2 0
9 *523:B 2.03441e-05
10 *522:B 0.000147303
11 *505:X 0
12 *80:107 0.000744733
13 *80:94 0.000474586
14 *80:81 0.00084619
15 *80:73 0.000898092
16 *80:54 0.000370738
17 *80:39 0.00112617
18 *80:26 0.000721827
19 *80:15 0.00068183
20 *80:4 0.000564463
21 *511:A2 *511:A1 0.000150618
22 *511:A2 *511:C1 0
23 *513:A2 *513:A1 8.23597e-06
24 *513:A2 *513:B1 1.4763e-05
25 *517:A2 *517:A1 3.93346e-05
26 *517:A2 *577:CLK 9.71197e-05
27 *517:A2 *117:45 0
28 *517:A2 *128:37 7.48301e-06
29 *519:A2 *518:B 0
30 *519:A2 *578:CLK 0.000100009
31 *519:A2 *627:A 0
32 *519:A2 *104:69 1.08359e-05
33 *521:A2 *503:A_N 0
34 *521:A2 *503:B 0.00019096
35 *521:A2 *513:A1 0.000151244
36 *521:A2 *521:B1 0.000148196
37 *521:A2 *571:CLK 6.42145e-05
38 *521:A2 *117:45 2.07158e-05
39 *521:A2 *120:47 1.8104e-05
40 *522:B *505:D_N 8.07313e-05
41 *522:B *599:A 0.00042756
42 *522:B *135:20 0.000564061
43 *523:B *523:A 5.7661e-06
44 *80:15 *599:A 0.000144773
45 *80:15 *90:10 0.000405727
46 *80:15 *136:29 0.000186447
47 *80:15 *136:38 4.88637e-05
48 *80:26 *509:C1 3.99614e-06
49 *80:26 *136:38 0.000202891
50 *80:26 *136:53 4.17014e-05
51 *80:39 *507:A1 0
52 *80:39 *509:C1 9.7049e-06
53 *80:39 *136:53 0.000843889
54 *80:73 *507:A1 0.000402912
55 *80:73 *507:B1 9.54798e-06
56 *80:81 *507:A1 4.15592e-05
57 *80:81 *507:B1 7.71617e-05
58 *80:81 *634:A 4.58976e-05
59 *80:81 *136:57 0.000227532
60 *80:81 *136:70 0.000433262
61 *80:81 *148:12 4.72917e-05
62 *80:94 *511:A1 0.000295851
63 *80:94 *515:A1 5.83304e-05
64 *80:94 *515:B1 0.000342502
65 *80:94 *104:69 5.62709e-05
66 *80:94 *136:83 0
67 *80:107 *515:A1 1.58163e-05
68 *80:107 *516:A 5.16852e-05
69 *80:107 *518:B 0
70 *80:107 *104:69 0.000164969
71 *80:107 *130:36 0
72 *572:D *80:81 0
73 *575:D *80:39 0
74 *576:D *80:107 4.0342e-06
75 *578:D *519:A2 0
76 *79:14 *521:A2 1.12323e-05
77 *79:14 *80:39 0.000209074
78 *79:36 *513:A2 6.7e-06
*RES
1 *505:X *80:4 9.3 
2 *80:4 *522:B 15.6036 
3 *80:4 *80:15 9.16071 
4 *80:15 *523:B 9.72857 
5 *80:15 *80:26 5.07143 
6 *80:26 *509:A2 9.3 
7 *80:26 *80:39 16.3839 
8 *80:39 *521:A2 26.6839 
9 *80:39 *80:54 0.535714 
10 *80:54 *513:A2 14.2152 
11 *80:54 *80:73 7.79239 
12 *80:73 *80:81 17.9643 
13 *80:81 *511:A2 15.7464 
14 *80:81 *80:94 10.3929 
15 *80:94 *515:A2 9.3 
16 *80:94 *80:107 10.7679 
17 *80:107 *517:A2 16.55 
18 *80:107 *519:A2 19.3893 
19 *80:73 *507:A2 13.8 
*END

*D_NET *81 0.00149583
*CONN
*I *507:B1 I *D sky130_fd_sc_hd__o211a_1
*I *506:X O *D sky130_fd_sc_hd__or2_1
*CAP
1 *507:B1 0.000500734
2 *506:X 0.000500734
3 *507:B1 *104:56 0.00040765
4 *507:B1 *148:12 0
5 *572:D *507:B1 0
6 *80:73 *507:B1 9.54798e-06
7 *80:81 *507:B1 7.71617e-05
*RES
1 *506:X *507:B1 35.7964 
*END

*D_NET *82 0.000906257
*CONN
*I *509:B1 I *D sky130_fd_sc_hd__o211a_1
*I *508:X O *D sky130_fd_sc_hd__or2_1
*CAP
1 *509:B1 0.000419859
2 *508:X 0.000419859
3 *509:B1 *113:10 6.65398e-05
4 *573:D *509:B1 0
*RES
1 *508:X *509:B1 33.85 
*END

*D_NET *83 0.000435817
*CONN
*I *511:B1 I *D sky130_fd_sc_hd__o211a_1
*I *510:X O *D sky130_fd_sc_hd__or2_1
*CAP
1 *511:B1 0.000143164
2 *510:X 0.000143164
3 *511:B1 *130:21 0.000149489
*RES
1 *510:X *511:B1 21.6179 
*END

*D_NET *84 0.00121456
*CONN
*I *513:B1 I *D sky130_fd_sc_hd__o211a_1
*I *512:X O *D sky130_fd_sc_hd__or2_1
*CAP
1 *513:B1 0.000150554
2 *512:X 0.000150554
3 *513:B1 *507:C1 5.71472e-05
4 *513:B1 *513:A1 3.52408e-05
5 *513:B1 *136:57 0.000618905
6 *513:A2 *513:B1 1.4763e-05
7 *79:36 *513:B1 0.000187391
*RES
1 *512:X *513:B1 24.917 
*END

*D_NET *85 0.00115278
*CONN
*I *515:B1 I *D sky130_fd_sc_hd__o211a_1
*I *514:X O *D sky130_fd_sc_hd__or2_1
*CAP
1 *515:B1 0.000303733
2 *514:X 0.000303733
3 *515:B1 *634:A 7.65658e-05
4 *515:B1 *136:83 0.000123419
5 *515:B1 *136:94 2.8266e-06
6 *80:94 *515:B1 0.000342502
*RES
1 *514:X *515:B1 34.1536 
*END

*D_NET *86 0.000896547
*CONN
*I *517:B1 I *D sky130_fd_sc_hd__o211a_1
*I *516:X O *D sky130_fd_sc_hd__or2_1
*CAP
1 *517:B1 0.000259412
2 *516:X 0.000259412
3 *517:B1 *519:C1 2.8266e-06
4 *517:B1 *111:44 0.000113083
5 *517:B1 *126:24 0.000208271
6 *517:B1 *136:94 5.35423e-05
*RES
1 *516:X *517:B1 32.1357 
*END

*D_NET *87 0.000761723
*CONN
*I *519:B1 I *D sky130_fd_sc_hd__o211a_1
*I *518:X O *D sky130_fd_sc_hd__or2_1
*CAP
1 *519:B1 0.000220706
2 *518:X 0.000220706
3 *519:B1 *494:A 0.000142053
4 *519:B1 *518:A 0.00010096
5 *519:B1 *519:A1 5.7661e-06
6 *519:B1 *519:C1 1.97695e-05
7 *519:B1 *118:36 5.17614e-05
*RES
1 *518:X *519:B1 23.2607 
*END

*D_NET *88 0.00151224
*CONN
*I *521:B1 I *D sky130_fd_sc_hd__o211a_1
*I *520:X O *D sky130_fd_sc_hd__or2_1
*CAP
1 *521:B1 0.000215971
2 *520:X 0.000215971
3 *521:B1 *502:A 9.6087e-05
4 *521:B1 *551:B1 0.00057215
5 *521:B1 *120:47 7.73758e-05
6 *521:B1 *128:37 0.00018649
7 *521:A2 *521:B1 0.000148196
*RES
1 *520:X *521:B1 35.8321 
*END

*D_NET *89 0.0131735
*CONN
*I *548:B1 I *D sky130_fd_sc_hd__o21a_1
*I *560:B1 I *D sky130_fd_sc_hd__o31a_1
*I *564:A I *D sky130_fd_sc_hd__and3_1
*I *566:A I *D sky130_fd_sc_hd__and3_1
*I *568:A I *D sky130_fd_sc_hd__and3_1
*I *544:B1 I *D sky130_fd_sc_hd__o31a_1
*I *534:B1 I *D sky130_fd_sc_hd__o21a_1
*I *522:X O *D sky130_fd_sc_hd__and2_2
*CAP
1 *548:B1 8.99818e-05
2 *560:B1 0.000653712
3 *564:A 0
4 *566:A 0
5 *568:A 0
6 *544:B1 0.000174701
7 *534:B1 0.000205104
8 *522:X 0
9 *89:83 0.00119543
10 *89:42 0.000847861
11 *89:36 0.000927953
12 *89:22 0.0012858
13 *89:12 0.00106014
14 *89:6 0.000685973
15 *534:B1 *109:12 0.000575086
16 *534:B1 *112:25 4.87995e-05
17 *89:12 *505:D_N 1.88048e-05
18 *89:12 *588:CLK 0
19 *89:12 *91:23 9.25014e-06
20 *89:12 *135:20 0.000315158
21 *89:22 *567:B 0.00010096
22 *89:22 *93:14 1.68715e-05
23 *89:22 *103:18 2.36466e-05
24 *89:22 *135:20 0.000166278
25 *89:22 *135:24 0.000706531
26 *89:36 *528:C 5.80706e-06
27 *89:36 *528:D 6.4915e-05
28 *89:36 *567:B 2.44318e-05
29 *89:36 *95:6 0.000125057
30 *89:36 *95:10 5.7661e-06
31 *89:36 *107:21 2.47093e-05
32 *89:36 *129:40 5.52238e-05
33 *89:36 *129:46 5.52302e-05
34 *89:42 *543:D 0
35 *89:42 *570:A1 0
36 *89:42 *597:A 9.25014e-06
37 *89:42 *95:6 2.24763e-05
38 *89:42 *95:10 2.44318e-05
39 *89:42 *109:18 0
40 *89:42 *112:25 0
41 *89:42 *129:46 0
42 *89:42 *132:14 0.000169459
43 *89:42 *132:34 3.59033e-05
44 *89:83 *505:D_N 4.33147e-05
45 *89:83 *554:A 5.34835e-05
46 *89:83 *554:D 0.000121573
47 *89:83 *562:C1 9.92095e-05
48 *89:83 *91:23 0.000153139
49 *89:83 *91:32 0.000382928
50 *89:83 *107:64 0
51 *89:83 *132:81 0.000125975
52 *544:A1 *544:B1 3.54266e-06
53 *544:A2 *544:B1 5.54856e-05
54 *544:A3 *534:B1 5.52238e-05
55 *544:A3 *544:B1 0
56 *558:B *560:B1 2.89114e-05
57 *560:A2 *560:B1 0.000331568
58 *562:A2 *560:B1 0.000336032
59 *562:B1 *89:83 7.79781e-06
60 *564:C *89:12 9.52453e-05
61 *564:C *89:22 5.71472e-05
62 *566:C *89:22 1.95435e-05
63 *568:C *89:36 0.00038503
64 *568:C *89:42 0.00010858
65 *589:D *89:22 0.00017836
66 *590:D *89:42 5.52302e-05
67 *591:D *89:42 8.14438e-05
68 *43:22 *89:83 3.34295e-05
69 *56:25 *560:B1 0.000230475
70 *60:42 *89:83 5.96917e-05
71 *76:14 *89:12 0
72 *76:14 *89:22 0.000104613
73 *78:40 *560:B1 9.22103e-06
74 *78:53 *548:B1 0.000104494
75 *78:53 *560:B1 0.000122091
*RES
1 *522:X *89:6 13.8 
2 *89:6 *89:12 8.83929 
3 *89:12 *89:22 13.5536 
4 *89:22 *89:36 18.4286 
5 *89:36 *89:42 14.5 
6 *89:42 *534:B1 19.9964 
7 *89:42 *544:B1 15.8893 
8 *89:36 *568:A 9.3 
9 *89:22 *566:A 9.3 
10 *89:12 *564:A 9.3 
11 *89:6 *89:83 16.4643 
12 *89:83 *560:B1 21.925 
13 *89:83 *548:B1 11.0857 
*END

*D_NET *90 0.0132645
*CONN
*I *552:B1 I *D sky130_fd_sc_hd__a31oi_1
*I *556:B1 I *D sky130_fd_sc_hd__a31oi_1
*I *562:C1 I *D sky130_fd_sc_hd__a211o_1
*I *570:B1 I *D sky130_fd_sc_hd__a21oi_1
*I *539:B1 I *D sky130_fd_sc_hd__a31oi_1
*I *523:Y O *D sky130_fd_sc_hd__nand2_2
*CAP
1 *552:B1 8.21614e-06
2 *556:B1 0.000271953
3 *562:C1 0.000535849
4 *570:B1 0.00115278
5 *539:B1 0
6 *523:Y 0.000234011
7 *90:59 0.00056519
8 *90:27 0.0022863
9 *90:19 0.000895365
10 *90:10 0.000246686
11 *552:B1 *594:A 5.52302e-05
12 *556:B1 *493:A 5.52238e-05
13 *556:B1 *553:A1 1.5424e-05
14 *556:B1 *555:B 1.24368e-05
15 *556:B1 *561:B1 6.4974e-06
16 *556:B1 *99:19 6.42502e-05
17 *556:B1 *99:30 0.000110337
18 *556:B1 *115:52 4.11218e-05
19 *556:B1 *126:24 0
20 *562:C1 *524:B 4.43126e-05
21 *562:C1 *554:B 0.000172309
22 *562:C1 *103:8 0
23 *562:C1 *103:12 0
24 *562:C1 *103:106 0
25 *562:C1 *107:60 9.71197e-05
26 *562:C1 *107:64 0.000103338
27 *562:C1 *107:68 0.000154109
28 *562:C1 *115:52 0.000101169
29 *570:B1 *524:A 5.52302e-05
30 *570:B1 *526:A 9.60875e-05
31 *570:B1 *530:A1 0.000122091
32 *570:B1 *537:C 0.000175779
33 *570:B1 *598:A 0.000356022
34 *570:B1 *93:6 2.58821e-05
35 *570:B1 *132:49 0.000167988
36 *570:B1 *133:6 7.49387e-06
37 *570:B1 *133:40 4.88637e-05
38 *570:B1 *135:43 0.000184745
39 *570:B1 *135:51 0.000441724
40 *90:10 *539:A1 1.578e-05
41 *90:10 *136:29 0.00040381
42 *90:19 *539:A1 4.99283e-06
43 *90:27 *507:A1 0.000211486
44 *90:27 *524:B 0.000768449
45 *90:27 *103:12 0
46 *90:27 *112:31 0.00139197
47 *90:27 *115:52 0
48 *90:59 *539:A1 0.000184752
49 *90:59 *593:A 5.52302e-05
50 *90:59 *594:A 0.000301824
51 *90:59 *99:19 0
52 *552:A3 *556:B1 0
53 *556:A1 *556:B1 9.71197e-05
54 *562:B1 *562:C1 1.02504e-05
55 *581:D *90:10 0
56 *62:14 *552:B1 4.38128e-05
57 *62:14 *90:59 0.000358977
58 *80:15 *90:10 0.000405727
59 *89:83 *562:C1 9.92095e-05
*RES
1 *523:Y *90:10 20.4786 
2 *90:10 *539:B1 13.8 
3 *90:10 *90:19 0.276786 
4 *90:19 *90:27 9.59405 
5 *90:27 *570:B1 36.1036 
6 *90:27 *562:C1 35.05 
7 *90:19 *90:59 12.7411 
8 *90:59 *556:B1 24.2286 
9 *90:59 *552:B1 9.83571 
*END

*D_NET *91 0.00692748
*CONN
*I *554:D I *D sky130_fd_sc_hd__or4_1
*I *557:A4 I *D sky130_fd_sc_hd__o41a_1
*I *540:A4 I *D sky130_fd_sc_hd__o41a_1
*I *537:D I *D sky130_fd_sc_hd__or4_1
*I *564:B I *D sky130_fd_sc_hd__and3_1
*I *524:Y O *D sky130_fd_sc_hd__nand2_1
*CAP
1 *554:D 0.00015459
2 *557:A4 0.000129917
3 *540:A4 0.000220315
4 *537:D 0
5 *564:B 0
6 *524:Y 0.000133398
7 *91:36 0.00064438
8 *91:32 0.000657859
9 *91:23 0.000442978
10 *91:12 0.000367255
11 *540:A4 *540:B1 6.6789e-05
12 *540:A4 *114:60 1.21258e-05
13 *540:A4 *132:77 0.000335208
14 *554:D *554:A 0.000139907
15 *554:D *554:B 5.91336e-05
16 *554:D *107:64 0
17 *554:D *115:52 0.000309266
18 *557:A4 *557:A3 6.43427e-05
19 *91:12 *524:A 4.15914e-05
20 *91:12 *599:A 0.00014285
21 *91:23 *504:D_N 1.72961e-05
22 *91:23 *524:A 0
23 *91:23 *599:A 0.000174232
24 *91:32 *504:D_N 2.52115e-05
25 *91:32 *107:68 0
26 *91:36 *132:77 0.000703519
27 *533:A2 *540:A4 4.42012e-05
28 *60:8 *91:36 0.000742535
29 *76:14 *91:12 2.56694e-05
30 *78:6 *540:A4 0.000464266
31 *78:40 *540:A4 8.76257e-05
32 *78:40 *557:A4 5.41352e-05
33 *89:12 *91:23 9.25014e-06
34 *89:83 *554:D 0.000121573
35 *89:83 *91:23 0.000153139
36 *89:83 *91:32 0.000382928
*RES
1 *524:Y *91:12 20.6929 
2 *91:12 *564:B 9.3 
3 *91:12 *91:23 8.51786 
4 *91:23 *537:D 13.8 
5 *91:23 *91:32 4.98214 
6 *91:32 *91:36 14.4821 
7 *91:36 *540:A4 16.6929 
8 *91:36 *557:A4 20.9071 
9 *91:32 *554:D 18.4429 
*END

*D_NET *92 0.00333424
*CONN
*I *547:B2 I *D sky130_fd_sc_hd__a32o_1
*I *551:A1 I *D sky130_fd_sc_hd__a21o_1
*I *525:X O *D sky130_fd_sc_hd__and3_1
*CAP
1 *547:B2 8.7267e-06
2 *551:A1 0.000807915
3 *525:X 0.000175963
4 *92:12 0.000992606
5 *547:B2 *545:A1 5.00087e-06
6 *547:B2 *120:20 0
7 *551:A1 *585:CLK 0
8 *551:A1 *115:52 1.40357e-05
9 *92:12 *545:A1 1.39158e-05
10 *92:12 *94:43 3.48013e-05
11 *92:12 *120:20 0
12 *92:12 *134:40 5.52238e-05
13 *545:A2 *547:B2 9.54798e-06
14 *545:A2 *551:A1 7.46146e-05
15 *550:B *551:A1 1.66706e-05
16 *556:A2 *551:A1 0.000449052
17 *556:A2 *92:12 5.7836e-06
18 *60:74 *551:A1 0.000670384
*RES
1 *525:X *92:12 16.3625 
2 *92:12 *551:A1 23.3373 
3 *92:12 *547:B2 14.0768 
*END

*D_NET *93 0.00254978
*CONN
*I *549:B I *D sky130_fd_sc_hd__or3b_1
*I *566:B I *D sky130_fd_sc_hd__and3_1
*I *567:B I *D sky130_fd_sc_hd__nand2_1
*I *526:Y O *D sky130_fd_sc_hd__nand3_1
*CAP
1 *549:B 0.000207808
2 *566:B 0
3 *567:B 9.01687e-05
4 *526:Y 5.50974e-05
5 *93:14 0.000504227
6 *93:6 0.000676964
7 *549:B *501:A 0
8 *549:B *526:A 0
9 *549:B *557:A3 0.0002659
10 *549:B *598:A 5.03772e-05
11 *549:B *133:116 8.66063e-05
12 *549:B *135:99 0
13 *93:6 *526:A 4.87854e-05
14 *93:6 *598:A 6.05161e-06
15 *93:6 *133:6 9.60875e-05
16 *93:6 *133:116 9.71197e-05
17 *93:14 *526:A 4.61259e-05
18 *93:14 *598:A 0
19 *93:14 *103:18 0.000107997
20 *570:B1 *93:6 2.58821e-05
21 *589:D *567:B 3.07996e-05
22 *589:D *93:14 1.15172e-05
23 *89:22 *567:B 0.00010096
24 *89:22 *93:14 1.68715e-05
25 *89:36 *567:B 2.44318e-05
*RES
1 *526:Y *93:6 11.0679 
2 *93:6 *93:14 14.5714 
3 *93:14 *567:B 11.6929 
4 *93:14 *566:B 9.3 
5 *93:6 *549:B 23.0143 
*END

*D_NET *94 0.0106792
*CONN
*I *542:A I *D sky130_fd_sc_hd__and2_1
*I *547:A2 I *D sky130_fd_sc_hd__a32o_1
*I *545:A1 I *D sky130_fd_sc_hd__a21oi_1
*I *535:A1 I *D sky130_fd_sc_hd__a21o_1
*I *538:B I *D sky130_fd_sc_hd__nand3_1
*I *533:B1 I *D sky130_fd_sc_hd__o2111a_1
*I *527:X O *D sky130_fd_sc_hd__and2b_1
*CAP
1 *542:A 0.000176861
2 *547:A2 9.36772e-05
3 *545:A1 5.56519e-05
4 *535:A1 0.000173687
5 *538:B 0.00024225
6 *533:B1 9.27009e-05
7 *527:X 0.000172634
8 *94:43 0.000579555
9 *94:37 0.000463351
10 *94:31 0.00257072
11 *94:23 0.00254762
12 *94:12 0.000403135
13 *535:A1 *545:B1 0.000229456
14 *535:A1 *120:47 0.000392132
15 *538:B *500:A 1.18064e-05
16 *538:B *129:12 5.03772e-05
17 *538:B *134:27 3.79467e-05
18 *538:B *134:40 0.000117073
19 *542:A *541:B 6.2589e-06
20 *542:A *541:C_N 0
21 *542:A *114:35 0.000271345
22 *547:A2 *120:20 4.69996e-05
23 *94:12 *129:46 0
24 *94:12 *129:55 0
25 *94:12 *135:64 1.02969e-05
26 *94:23 *536:C 6.2589e-06
27 *94:23 *541:B 0
28 *94:23 *541:C_N 0
29 *94:23 *129:55 0
30 *94:31 *120:20 5.41514e-05
31 *94:31 *133:91 0.000128633
32 *94:43 *120:20 0
33 *94:43 *120:47 0.00018372
34 *94:43 *134:40 8.50152e-05
35 *533:A1 *94:12 0.000125724
36 *538:A *538:B 0.000405038
37 *538:A *545:A1 0
38 *538:A *94:43 0
39 *542:B *542:A 0.000100625
40 *544:A1 *533:B1 0.00014285
41 *545:A2 *545:A1 3.27359e-05
42 *545:A2 *94:31 1.7765e-05
43 *547:A3 *547:A2 5.52302e-05
44 *547:B2 *545:A1 5.00087e-06
45 *548:A1 *547:A2 1.39726e-05
46 *548:A1 *94:37 0.000354111
47 *56:25 *542:A 4.58976e-05
48 *56:44 *547:A2 3.10885e-05
49 *60:42 *547:A2 0
50 *60:42 *94:31 0
51 *78:53 *547:A2 9.71197e-05
52 *92:12 *545:A1 1.39158e-05
53 *92:12 *94:43 3.48013e-05
*RES
1 *527:X *94:12 17.0143 
2 *94:12 *533:B1 15.1571 
3 *94:12 *94:23 2.09821 
4 *94:23 *94:31 12.2497 
5 *94:31 *94:37 12.4107 
6 *94:37 *94:43 7.91071 
7 *94:43 *538:B 24.8357 
8 *94:43 *535:A1 14.3714 
9 *94:37 *545:A1 14.8357 
10 *94:31 *547:A2 16.0857 
11 *94:23 *542:A 18.4875 
*END

*D_NET *95 0.00217424
*CONN
*I *568:B I *D sky130_fd_sc_hd__and3_1
*I *530:A2 I *D sky130_fd_sc_hd__o21a_1
*I *529:B I *D sky130_fd_sc_hd__or2_1
*I *569:B I *D sky130_fd_sc_hd__nand2_1
*I *528:Y O *D sky130_fd_sc_hd__nand4_1
*CAP
1 *568:B 0
2 *530:A2 7.31151e-05
3 *529:B 7.97486e-06
4 *569:B 6.44857e-05
5 *528:Y 0.000212586
6 *95:12 9.65443e-05
7 *95:10 0.000259606
8 *95:6 0.000374994
9 *529:B *569:A 1.61893e-05
10 *530:A2 *570:A1 2.79092e-05
11 *569:B *569:A 3.76337e-05
12 *95:10 *570:A1 3.18676e-05
13 *95:10 *132:8 0.000141985
14 *95:10 *132:14 0.00043032
15 *95:12 *569:A 4.14279e-05
16 *95:12 *132:14 1.33343e-05
17 *570:A2 *530:A2 7.83659e-05
18 *570:A2 *569:B 5.62995e-05
19 *570:A2 *95:12 3.18676e-05
20 *591:D *530:A2 0
21 *89:36 *95:6 0.000125057
22 *89:36 *95:10 5.7661e-06
23 *89:42 *95:6 2.24763e-05
24 *89:42 *95:10 2.44318e-05
*RES
1 *528:Y *95:6 12.3 
2 *95:6 *95:10 5.375 
3 *95:10 *95:12 0.946429 
4 *95:12 *569:B 11.0857 
5 *95:12 *529:B 9.72857 
6 *95:10 *530:A2 20.0679 
7 *95:6 *568:B 9.3 
*END

*D_NET *96 0.000368247
*CONN
*I *570:A1 I *D sky130_fd_sc_hd__a21oi_1
*I *529:X O *D sky130_fd_sc_hd__or2_1
*CAP
1 *570:A1 0.000134593
2 *529:X 0.000134593
3 *530:A2 *570:A1 2.79092e-05
4 *570:A2 *570:A1 0
5 *591:D *570:A1 3.92854e-05
6 *89:42 *570:A1 0
7 *95:10 *570:A1 3.18676e-05
*RES
1 *529:X *570:A1 30.0821 
*END

*D_NET *97 0.000758332
*CONN
*I *534:A1 I *D sky130_fd_sc_hd__o21a_1
*I *530:X O *D sky130_fd_sc_hd__o21a_1
*CAP
1 *534:A1 0.000211455
2 *530:X 0.000211455
3 *534:A1 *534:A2 2.06178e-05
4 *534:A1 *103:34 0
5 *534:A1 *112:25 0.000314805
*RES
1 *530:X *534:A1 32.2071 
*END

*D_NET *98 0.00187317
*CONN
*I *559:A2 I *D sky130_fd_sc_hd__o211a_1
*I *543:B_N I *D sky130_fd_sc_hd__and4bb_1
*I *531:X O *D sky130_fd_sc_hd__and2b_1
*CAP
1 *559:A2 0.00010375
2 *543:B_N 0.000167433
3 *531:X 7.9397e-05
4 *98:10 0.00035058
5 *543:B_N *536:B_N 1.98839e-05
6 *543:B_N *536:C 9.7659e-05
7 *543:B_N *536:D 7.77751e-05
8 *559:A2 *536:A_N 8.25843e-06
9 *559:A2 *536:B_N 2.286e-05
10 *98:10 *541:B 0.00014491
11 *98:10 *114:35 5.4891e-05
12 *543:C *543:B_N 0.000139913
13 *559:A1 *559:A2 0.000129901
14 *559:B1 *543:B_N 0.0003865
15 *559:B1 *559:A2 8.02107e-05
16 *559:C1 *98:10 9.25014e-06
*RES
1 *531:X *98:10 20.2464 
2 *98:10 *543:B_N 14.7821 
3 *98:10 *559:A2 11.925 
*END

*D_NET *99 0.00469197
*CONN
*I *550:A I *D sky130_fd_sc_hd__nand2_1
*I *553:A1 I *D sky130_fd_sc_hd__a21o_1
*I *555:B I *D sky130_fd_sc_hd__nand3_1
*I *535:A2 I *D sky130_fd_sc_hd__a21o_1
*I *538:C I *D sky130_fd_sc_hd__nand3_1
*I *532:X O *D sky130_fd_sc_hd__and3b_1
*CAP
1 *550:A 5.61444e-05
2 *553:A1 0.000238603
3 *555:B 0.000247646
4 *535:A2 0
5 *538:C 0
6 *532:X 8.69685e-05
7 *99:30 0.000638472
8 *99:19 0.000433955
9 *99:15 0.000430538
10 *99:8 0.000179629
11 *550:A *596:A 0.000350503
12 *550:A *114:60 8.3725e-05
13 *550:A *114:62 8.07313e-05
14 *553:A1 *493:A 0.000315165
15 *555:B *545:B1 1.21258e-05
16 *99:8 *114:60 0.000221634
17 *99:8 *129:12 0.000225763
18 *99:15 *596:A 0.000232399
19 *99:15 *114:60 0.000128886
20 *99:15 *129:12 5.52302e-05
21 *99:19 *535:B1 4.1331e-06
22 *99:19 *539:A1 0
23 *99:19 *115:52 4.28365e-05
24 *99:19 *120:47 0
25 *99:30 *493:A 3.06511e-05
26 *99:30 *535:B1 3.0145e-05
27 *550:B *99:19 0
28 *552:A2 *99:19 0
29 *556:A1 *555:B 1.38323e-05
30 *556:A2 *555:B 9.71197e-05
31 *556:A2 *99:30 0.000131868
32 *556:A3 *555:B 0.000110567
33 *556:B1 *553:A1 1.5424e-05
34 *556:B1 *555:B 1.24368e-05
35 *556:B1 *99:19 6.42502e-05
36 *556:B1 *99:30 0.000110337
37 *585:D *99:30 1.02504e-05
38 *78:68 *555:B 0
39 *90:59 *99:19 0
*RES
1 *532:X *99:8 12.2107 
2 *99:8 *538:C 9.3 
3 *99:8 *99:15 3.41071 
4 *99:15 *99:19 9.48214 
5 *99:19 *535:A2 13.8 
6 *99:19 *99:30 7.96429 
7 *99:30 *555:B 13.7107 
8 *99:30 *553:A1 12.7107 
9 *99:15 *550:A 12.7107 
*END

*D_NET *100 0.00158032
*CONN
*I *534:A2 I *D sky130_fd_sc_hd__o21a_1
*I *533:X O *D sky130_fd_sc_hd__o2111a_1
*CAP
1 *534:A2 0.000758708
2 *533:X 0.000758708
3 *534:A2 *543:A_N 2.11419e-05
4 *534:A2 *543:D 2.11419e-05
5 *534:A2 *103:34 0
6 *534:A2 *103:43 0
7 *534:A2 *112:31 0
8 *534:A1 *534:A2 2.06178e-05
*RES
1 *533:X *534:A2 36.2457 
*END

*D_NET *101 0.00137762
*CONN
*I *539:A1 I *D sky130_fd_sc_hd__a31oi_1
*I *535:X O *D sky130_fd_sc_hd__a21o_1
*CAP
1 *539:A1 0.00041195
2 *535:X 0.00041195
3 *539:A1 *500:A 0.000251328
4 *539:A1 *115:52 1.90936e-05
5 *539:A1 *120:47 7.77751e-05
6 *90:10 *539:A1 1.578e-05
7 *90:19 *539:A1 4.99283e-06
8 *90:59 *539:A1 0.000184752
9 *99:19 *539:A1 0
*RES
1 *535:X *539:A1 35.7607 
*END

*D_NET *102 0.00301974
*CONN
*I *594:A I *D sky130_fd_sc_hd__clkbuf_16
*I *593:A I *D sky130_fd_sc_hd__clkbuf_16
*I *592:X O *D sky130_fd_sc_hd__clkbuf_16
*CAP
1 *594:A 0.000271855
2 *593:A 0.000596775
3 *592:X 2.23854e-05
4 *102:6 0.000891016
5 *593:A *546:B 4.72917e-05
6 *593:A *132:77 5.52238e-05
7 *552:B1 *594:A 5.52302e-05
8 *584:D *594:A 0.000270326
9 *60:8 *593:A 9.80173e-05
10 *62:14 *593:A 0.000305702
11 *62:14 *594:A 4.88637e-05
12 *90:59 *593:A 5.52302e-05
13 *90:59 *594:A 0.000301824
*RES
1 *592:X *102:6 9.72857 
2 *102:6 *593:A 19.6929 
3 *102:6 *594:A 15.5857 
*END

*D_NET *103 0.0137961
*CONN
*I *587:CLK I *D sky130_fd_sc_hd__dfxtp_1
*I *586:CLK I *D sky130_fd_sc_hd__dfxtp_1
*I *595:A I *D sky130_fd_sc_hd__clkinvlp_4
*I *588:CLK I *D sky130_fd_sc_hd__dfxtp_1
*I *589:CLK I *D sky130_fd_sc_hd__dfxtp_1
*I *590:CLK I *D sky130_fd_sc_hd__dfxtp_2
*I *591:CLK I *D sky130_fd_sc_hd__dfxtp_1
*I *583:CLK I *D sky130_fd_sc_hd__dfxtp_1
*I *582:CLK I *D sky130_fd_sc_hd__dfxtp_1
*I *580:CLK I *D sky130_fd_sc_hd__dfxtp_1
*I *593:X O *D sky130_fd_sc_hd__clkbuf_16
*CAP
1 *587:CLK 1.51975e-05
2 *586:CLK 0.000215966
3 *595:A 0.000105615
4 *588:CLK 0.000197619
5 *589:CLK 0
6 *590:CLK 2.23854e-05
7 *591:CLK 2.23854e-05
8 *583:CLK 0.000347577
9 *582:CLK 0
10 *580:CLK 0
11 *593:X 0
12 *103:106 0.000688214
13 *103:43 0.000636895
14 *103:34 0.000870226
15 *103:28 0.000949576
16 *103:26 0.000954958
17 *103:18 0.000865132
18 *103:12 0.000654428
19 *103:8 0.000379664
20 *103:6 0.000553131
21 *583:CLK *115:10 0.000249595
22 *586:CLK *115:28 5.52238e-05
23 *586:CLK *117:20 0.000380121
24 *587:CLK *117:20 1.92905e-05
25 *588:CLK *524:A 0
26 *588:CLK *599:A 0.000357054
27 *588:CLK *108:18 0
28 *588:CLK *129:98 0
29 *588:CLK *135:20 0.000345637
30 *595:A *504:D_N 5.33005e-05
31 *595:A *114:60 8.37104e-05
32 *103:8 *557:A1 0.00016384
33 *103:12 *524:A 9.05981e-05
34 *103:12 *524:B 0
35 *103:12 *557:A1 3.17148e-05
36 *103:12 *108:18 0.000307327
37 *103:18 *599:A 0.000138956
38 *103:18 *135:20 1.33343e-05
39 *103:18 *135:24 0.000523071
40 *103:26 *528:C 0.00066861
41 *103:26 *107:10 0.00014183
42 *103:26 *108:18 0.00011411
43 *103:26 *129:40 4.59075e-05
44 *103:26 *133:12 6.94775e-05
45 *103:28 *108:8 9.60875e-05
46 *103:28 *108:18 1.40415e-05
47 *103:106 *557:A1 0.000232663
48 *103:106 *557:B1 0
49 *534:A1 *103:34 0
50 *534:A2 *103:34 0
51 *534:A2 *103:43 0
52 *558:B *103:106 0
53 *562:C1 *103:8 0
54 *562:C1 *103:12 0
55 *562:C1 *103:106 0
56 *566:C *103:26 0.00016627
57 *567:A *103:26 0
58 *583:D *583:CLK 0.00013001
59 *586:D *586:CLK 5.95099e-05
60 *588:D *588:CLK 0.000102545
61 *589:D *103:18 0.00012515
62 *590:D *103:26 8.95186e-05
63 *591:D *103:28 0.000585264
64 *43:22 *586:CLK 0.000708883
65 *43:22 *587:CLK 2.28598e-05
66 *56:40 *103:106 0
67 *89:12 *588:CLK 0
68 *89:22 *103:18 2.36466e-05
69 *90:27 *103:12 0
70 *93:14 *103:18 0.000107997
*RES
1 *593:X *103:6 13.8 
2 *103:6 *103:8 2.25 
3 *103:8 *103:12 8.875 
4 *103:12 *103:18 8.89286 
5 *103:18 *103:26 22.5714 
6 *103:26 *103:28 7.51786 
7 *103:28 *103:34 14.6786 
8 *103:34 *580:CLK 13.8 
9 *103:34 *103:43 4.98214 
10 *103:43 *582:CLK 13.8 
11 *103:43 *583:CLK 21.8179 
12 *103:28 *591:CLK 9.72857 
13 *103:26 *590:CLK 9.72857 
14 *103:18 *589:CLK 9.3 
15 *103:12 *588:CLK 24.2643 
16 *103:8 *595:A 15.9786 
17 *103:6 *103:106 12.5179 
18 *103:106 *586:CLK 19.2821 
19 *103:106 *587:CLK 9.83571 
*END

*D_NET *104 0.0140648
*CONN
*I *584:CLK I *D sky130_fd_sc_hd__dfxtp_1
*I *579:CLK I *D sky130_fd_sc_hd__dfxtp_1
*I *502:A I *D sky130_fd_sc_hd__inv_2
*I *585:CLK I *D sky130_fd_sc_hd__dfxtp_1
*I *574:CLK I *D sky130_fd_sc_hd__dfxtp_1
*I *578:CLK I *D sky130_fd_sc_hd__dfxtp_1
*I *577:CLK I *D sky130_fd_sc_hd__dfxtp_1
*I *576:CLK I *D sky130_fd_sc_hd__dfxtp_1
*I *572:CLK I *D sky130_fd_sc_hd__dfxtp_1
*I *575:CLK I *D sky130_fd_sc_hd__dfxtp_1
*I *573:CLK I *D sky130_fd_sc_hd__dfxtp_1
*I *581:CLK I *D sky130_fd_sc_hd__dfxtp_1
*I *594:X O *D sky130_fd_sc_hd__clkbuf_16
*CAP
1 *584:CLK 0
2 *579:CLK 0.000392753
3 *502:A 0.000117138
4 *585:CLK 0.000298217
5 *574:CLK 0
6 *578:CLK 0.000104954
7 *577:CLK 4.83656e-05
8 *576:CLK 0
9 *572:CLK 2.23854e-05
10 *575:CLK 0.000109879
11 *573:CLK 2.23854e-05
12 *581:CLK 0.000435429
13 *594:X 0
14 *104:102 0.000415355
15 *104:100 0.000657862
16 *104:96 0.000380237
17 *104:69 0.000421689
18 *104:60 0.000612586
19 *104:56 0.000920357
20 *104:43 0.000632142
21 *104:30 0.000538196
22 *104:12 0.000675322
23 *104:10 0.00111383
24 *104:4 0.000616753
25 *502:A *493:A 0.000177821
26 *502:A *551:B1 1.21289e-05
27 *502:A *561:B1 0.000209197
28 *502:A *128:37 0.000185643
29 *577:CLK *128:37 2.95726e-05
30 *578:CLK *495:A 0
31 *578:CLK *126:24 6.82922e-05
32 *579:CLK *497:A 9.60875e-05
33 *579:CLK *498:A 0
34 *579:CLK *521:A1 0.000158764
35 *579:CLK *545:B1 0.000148196
36 *579:CLK *117:45 3.36253e-05
37 *581:CLK *113:10 5.71472e-05
38 *585:CLK *493:A 0.000616988
39 *585:CLK *521:A1 0.000127426
40 *585:CLK *561:B1 0.000618905
41 *585:CLK *113:23 9.77024e-05
42 *585:CLK *117:20 0.000141326
43 *104:10 *498:A 0.000103267
44 *104:10 *503:B 0
45 *104:10 *113:10 0
46 *104:10 *113:23 0
47 *104:10 *136:53 0
48 *104:10 *136:118 0
49 *104:12 *113:10 1.33343e-05
50 *104:56 *506:A 0.000188586
51 *104:56 *631:A 0.000135965
52 *104:60 *506:B 0
53 *104:60 *511:A1 0.000391576
54 *104:60 *130:25 0
55 *104:60 *130:36 0
56 *104:69 *511:A1 4.80729e-05
57 *104:69 *515:A1 5.83304e-05
58 *104:69 *126:24 7.6021e-05
59 *104:69 *130:36 0
60 *104:69 *136:94 0
61 *104:100 *497:A 3.57844e-05
62 *104:100 *498:A 0
63 *104:100 *503:B 0
64 *104:100 *513:A1 0
65 *104:100 *545:B1 0.000146474
66 *104:100 *120:47 6.8646e-06
67 *507:B1 *104:56 0.00040765
68 *508:B *575:CLK 5.57914e-05
69 *517:A2 *577:CLK 9.71197e-05
70 *519:A2 *578:CLK 0.000100009
71 *519:A2 *104:69 1.08359e-05
72 *521:B1 *502:A 9.6087e-05
73 *551:A1 *585:CLK 0
74 *572:D *575:CLK 0
75 *572:D *104:56 1.64343e-05
76 *573:D *104:10 0
77 *573:D *104:12 1.64343e-05
78 *574:D *104:60 4.79842e-05
79 *575:D *575:CLK 4.1331e-06
80 *576:D *104:60 4.1331e-06
81 *576:D *104:69 5.80217e-05
82 *577:D *577:CLK 2.89114e-05
83 *581:D *581:CLK 8.95186e-05
84 *584:D *104:96 0.000102197
85 *585:D *585:CLK 0.00013001
86 *604:A *579:CLK 5.52302e-05
87 *79:14 *575:CLK 4.1331e-06
88 *80:94 *104:69 5.62709e-05
89 *80:107 *104:69 0.000164969
*RES
1 *594:X *104:4 9.3 
2 *104:4 *104:10 17.625 
3 *104:10 *104:12 3.41071 
4 *104:12 *581:CLK 16.425 
5 *104:12 *573:CLK 9.72857 
6 *104:10 *104:30 5.875 
7 *104:30 *575:CLK 20.2464 
8 *104:30 *104:43 0.535714 
9 *104:43 *572:CLK 9.72857 
10 *104:43 *104:56 12.4821 
11 *104:56 *104:60 11.9107 
12 *104:60 *576:CLK 13.8 
13 *104:60 *104:69 7.41071 
14 *104:69 *577:CLK 15.1571 
15 *104:69 *578:CLK 16.3536 
16 *104:56 *574:CLK 9.3 
17 *104:4 *104:96 2.5 
18 *104:96 *104:100 9.48214 
19 *104:100 *104:102 4.5 
20 *104:102 *585:CLK 30.1393 
21 *104:102 *502:A 13.55 
22 *104:100 *579:CLK 21.2464 
23 *104:96 *584:CLK 9.3 
*END

*D_NET *105 0.00374781
*CONN
*I *532:A_N I *D sky130_fd_sc_hd__and3b_1
*I *600:A I *D sky130_fd_sc_hd__buf_2
*I *504:C I *D sky130_fd_sc_hd__nor4b_1
*I *524:B I *D sky130_fd_sc_hd__nand2_1
*I *588:Q O *D sky130_fd_sc_hd__dfxtp_1
*CAP
1 *532:A_N 0.000101566
2 *600:A 0
3 *504:C 0
4 *524:B 0.000487564
5 *588:Q 0.000204395
6 *105:14 0.000533186
7 *105:12 4.56224e-05
8 *105:10 0.000305961
9 *524:B *505:A 4.6025e-06
10 *524:B *524:A 2.8266e-06
11 *524:B *107:68 6.69871e-05
12 *524:B *129:22 6.30931e-05
13 *532:A_N *525:A 2.16719e-05
14 *532:A_N *601:A 9.25014e-06
15 *532:A_N *114:60 2.59355e-05
16 *532:A_N *129:22 4.59234e-05
17 *532:A_N *134:12 2.09413e-05
18 *532:A_N *136:29 5.33005e-05
19 *105:10 *129:22 8.7658e-05
20 *105:10 *134:12 0.000142352
21 *105:14 *504:B 9.41642e-05
22 *105:14 *134:27 4.08637e-05
23 *539:A2 *105:14 3.54723e-05
24 *562:C1 *524:B 4.43126e-05
25 *592:A *532:A_N 0.000166345
26 *592:A *105:10 0.000322069
27 *79:10 *105:14 5.33005e-05
28 *90:27 *524:B 0.000768449
29 *103:12 *524:B 0
*RES
1 *588:Q *105:10 18.7107 
2 *105:10 *105:12 4.5 
3 *105:12 *105:14 1.35714 
4 *105:14 *524:B 28.0879 
5 *105:14 *504:C 9.3 
6 *105:12 *600:A 9.3 
7 *105:10 *532:A_N 16.5857 
*END

*D_NET *106 0.00443097
*CONN
*I *599:A I *D sky130_fd_sc_hd__buf_1
*I *598:A I *D sky130_fd_sc_hd__buf_2
*I *589:Q O *D sky130_fd_sc_hd__dfxtp_1
*CAP
1 *599:A 0.00064419
2 *598:A 0.000206819
3 *589:Q 0
4 *106:4 0.000851009
5 *598:A *537:C 0.000228558
6 *598:A *557:A3 0
7 *598:A *108:18 0
8 *598:A *133:116 1.21289e-05
9 *599:A *505:A 0.00018372
10 *599:A *505:C 3.97677e-05
11 *599:A *505:D_N 0.000139907
12 *599:A *134:6 2.77289e-05
13 *599:A *135:20 0.000154497
14 *599:A *136:29 0.000144773
15 *522:B *599:A 0.00042756
16 *549:B *598:A 5.03772e-05
17 *570:B1 *598:A 0.000356022
18 *588:CLK *599:A 0.000357054
19 *80:15 *599:A 0.000144773
20 *91:12 *599:A 0.00014285
21 *91:23 *599:A 0.000174232
22 *93:6 *598:A 6.05161e-06
23 *93:14 *598:A 0
24 *103:18 *599:A 0.000138956
*RES
1 *589:Q *106:4 9.3 
2 *106:4 *598:A 23.6571 
3 *106:4 *599:A 26.7286 
*END

*D_NET *107 0.0118167
*CONN
*I *554:B I *D sky130_fd_sc_hd__or4_1
*I *546:B I *D sky130_fd_sc_hd__nor2_2
*I *504:A I *D sky130_fd_sc_hd__nor4b_1
*I *505:A I *D sky130_fd_sc_hd__or4b_4
*I *491:A I *D sky130_fd_sc_hd__inv_2
*I *557:A2 I *D sky130_fd_sc_hd__o41a_1
*I *527:B I *D sky130_fd_sc_hd__and2b_1
*I *543:D I *D sky130_fd_sc_hd__and4bb_1
*I *528:B I *D sky130_fd_sc_hd__nand4_1
*I *590:Q O *D sky130_fd_sc_hd__dfxtp_2
*CAP
1 *554:B 0.000296631
2 *546:B 0.000227684
3 *504:A 0
4 *505:A 0.000244333
5 *491:A 0
6 *557:A2 0
7 *527:B 0
8 *543:D 0.000468825
9 *528:B 0
10 *590:Q 0.000123549
11 *107:81 0.00055446
12 *107:68 0.000508416
13 *107:64 0.000596588
14 *107:60 0.000824143
15 *107:53 0.000907988
16 *107:38 0.000595703
17 *107:21 0.000796694
18 *107:10 0.000406807
19 *505:A *505:C 9.71197e-05
20 *505:A *522:A 5.8685e-05
21 *505:A *129:22 6.03829e-05
22 *543:D *543:A_N 8.37314e-05
23 *543:D *109:18 0.000115292
24 *543:D *132:60 9.71197e-05
25 *546:B *132:77 0.000397918
26 *554:B *554:A 7.32272e-05
27 *554:B *554:C 1.00733e-05
28 *554:B *115:52 7.48301e-06
29 *107:10 *528:C 7.83659e-05
30 *107:10 *129:40 8.00806e-05
31 *107:21 *528:C 1.02504e-05
32 *107:21 *528:D 0
33 *107:21 *129:40 4.56437e-05
34 *107:21 *129:46 6.55821e-05
35 *107:21 *132:49 0.0001134
36 *107:21 *135:64 0
37 *107:38 *132:60 8.66063e-05
38 *107:53 *492:A 5.33433e-05
39 *107:53 *531:A_N 2.12521e-05
40 *107:53 *536:A_N 2.91035e-05
41 *107:53 *557:B1 0.000144773
42 *107:53 *109:18 7.32955e-05
43 *107:53 *114:60 0.00012401
44 *107:53 *115:28 0.000109887
45 *107:53 *115:52 5.5518e-05
46 *107:53 *132:60 0.000440794
47 *107:53 *133:91 1.43455e-05
48 *107:53 *135:99 0.000106392
49 *107:60 *557:A1 0.000170955
50 *107:60 *557:B1 4.18895e-05
51 *107:60 *115:52 6.3001e-05
52 *107:68 *504:D_N 5.5201e-05
53 *107:81 *504:B 3.45371e-05
54 *107:81 *504:D_N 8.01497e-05
55 *107:81 *537:A 5.52238e-05
56 *107:81 *537:C 0.000268396
57 *524:B *505:A 4.6025e-06
58 *524:B *107:68 6.69871e-05
59 *533:A1 *107:53 0.000437756
60 *534:A2 *543:D 2.11419e-05
61 *539:A2 *107:81 9.99644e-06
62 *543:C *543:D 4.884e-05
63 *544:A2 *543:D 0.000170952
64 *554:D *554:B 5.91336e-05
65 *554:D *107:64 0
66 *560:A3 *107:53 9.80173e-05
67 *562:C1 *554:B 0.000172309
68 *562:C1 *107:60 9.71197e-05
69 *562:C1 *107:64 0.000103338
70 *562:C1 *107:68 0.000154109
71 *593:A *546:B 4.72917e-05
72 *599:A *505:A 0.00018372
73 *89:36 *107:21 2.47093e-05
74 *89:42 *543:D 0
75 *89:83 *107:64 0
76 *91:32 *107:68 0
77 *103:26 *107:10 0.00014183
*RES
1 *590:Q *107:10 16.1929 
2 *107:10 *528:B 13.8 
3 *107:10 *107:21 10.6964 
4 *107:21 *543:D 26.8357 
5 *107:21 *107:38 0.946429 
6 *107:38 *527:B 9.3 
7 *107:38 *107:53 24.0893 
8 *107:53 *557:A2 9.3 
9 *107:53 *107:60 6.69643 
10 *107:60 *107:64 7.66071 
11 *107:64 *107:68 9.17857 
12 *107:68 *491:A 9.3 
13 *107:68 *107:81 6.44643 
14 *107:81 *505:A 23.1571 
15 *107:81 *504:A 9.3 
16 *107:64 *546:B 18.8714 
17 *107:60 *554:B 14.7821 
*END

*D_NET *108 0.00910761
*CONN
*I *597:A I *D sky130_fd_sc_hd__clkbuf_2
*I *557:A1 I *D sky130_fd_sc_hd__o41a_1
*I *504:D_N I *D sky130_fd_sc_hd__nor4b_1
*I *591:Q O *D sky130_fd_sc_hd__dfxtp_1
*CAP
1 *597:A 7.66748e-05
2 *557:A1 0.000346769
3 *504:D_N 0.000614981
4 *591:Q 7.26651e-05
5 *108:18 0.0028735
6 *108:8 0.00206109
7 *504:D_N *524:A 0
8 *504:D_N *537:A 2.89016e-05
9 *504:D_N *537:C 0.000181796
10 *504:D_N *114:60 9.1084e-05
11 *557:A1 *557:A3 0
12 *557:A1 *115:52 0.000170955
13 *597:A *132:14 5.33005e-05
14 *108:18 *524:A 1.34195e-05
15 *108:18 *557:A3 0
16 *108:18 *565:A2 1.74352e-05
17 *108:18 *129:24 6.61906e-05
18 *108:18 *129:40 0.000544936
19 *108:18 *129:98 3.0285e-05
20 *537:B *504:D_N 0.00014285
21 *539:A2 *504:D_N 9.90431e-05
22 *549:C_N *557:A1 0
23 *558:B *557:A1 0
24 *588:CLK *108:18 0
25 *590:D *597:A 3.92854e-05
26 *590:D *108:18 6.48264e-05
27 *591:D *597:A 9.22948e-05
28 *591:D *108:18 5.41794e-05
29 *595:A *504:D_N 5.33005e-05
30 *598:A *108:18 0
31 *89:42 *597:A 9.25014e-06
32 *91:23 *504:D_N 1.72961e-05
33 *91:32 *504:D_N 2.52115e-05
34 *103:8 *557:A1 0.00016384
35 *103:12 *557:A1 3.17148e-05
36 *103:12 *108:18 0.000307327
37 *103:26 *108:18 0.00011411
38 *103:28 *108:8 9.60875e-05
39 *103:28 *108:18 1.40415e-05
40 *103:106 *557:A1 0.000232663
41 *107:60 *557:A1 0.000170955
42 *107:68 *504:D_N 5.5201e-05
43 *107:81 *504:D_N 8.01497e-05
*RES
1 *591:Q *108:8 14.7464 
2 *108:8 *108:18 37.8929 
3 *108:18 *504:D_N 33.5321 
4 *108:18 *557:A1 22.3893 
5 *108:8 *597:A 15.675 
*END

*D_NET *109 0.00965743
*CONN
*I *543:A_N I *D sky130_fd_sc_hd__and4bb_1
*I *549:A I *D sky130_fd_sc_hd__or3b_1
*I *501:A I *D sky130_fd_sc_hd__inv_2
*I *610:X O *D sky130_fd_sc_hd__buf_1
*CAP
1 *543:A_N 0.000153657
2 *549:A 0.000138252
3 *501:A 0.000145466
4 *610:X 0.00245903
5 *109:18 0.000791316
6 *109:12 0.00312028
7 *501:A *557:A3 0
8 *501:A *135:99 3.57844e-05
9 *543:A_N *541:C_N 4.98872e-05
10 *543:A_N *129:46 4.58192e-05
11 *543:A_N *129:55 5.74562e-05
12 *549:A *114:60 0.000399841
13 *109:12 *112:25 6.75122e-05
14 *109:18 *114:60 6.71755e-05
15 *109:18 *129:46 7.60306e-05
16 *109:18 *132:60 0.000569201
17 *533:A1 *501:A 0.000150625
18 *533:A1 *109:18 1.21289e-05
19 *534:A2 *543:A_N 2.11419e-05
20 *534:B1 *109:12 0.000575086
21 *543:D *543:A_N 8.37314e-05
22 *543:D *109:18 0.000115292
23 *544:A1 *109:12 1.36608e-05
24 *544:A2 *543:A_N 3.60626e-05
25 *544:A2 *109:12 0.000144773
26 *544:A3 *109:12 1.5424e-05
27 *549:B *501:A 0
28 *549:C_N *549:A 0.000138881
29 *580:D *109:12 0.000100624
30 *89:42 *109:18 0
31 *107:53 *109:18 7.32955e-05
*RES
1 *610:X *109:12 46.1036 
2 *109:12 *109:18 16.0179 
3 *109:18 *501:A 21.1571 
4 *109:18 *549:A 13.55 
5 *109:12 *543:A_N 17.5679 
*END

*D_NET *110 0.00571546
*CONN
*I *613:A I *D sky130_fd_sc_hd__buf_2
*I *520:A I *D sky130_fd_sc_hd__or2_1
*I *579:Q O *D sky130_fd_sc_hd__dfxtp_1
*CAP
1 *613:A 0.0011054
2 *520:A 0.000147669
3 *579:Q 0
4 *110:4 0.00125306
5 *520:A *579:D 0
6 *520:A *116:10 0.000148189
7 *520:A *116:23 4.80729e-05
8 *520:A *117:45 3.80277e-05
9 *520:A *128:37 0.000186662
10 *613:A *494:A 0.000144773
11 *613:A *551:B1 2.22999e-05
12 *613:A *627:A 0.000165873
13 *613:A *628:A 0.000880687
14 *613:A *629:A 2.47724e-05
15 *613:A *637:A 0.00070948
16 *613:A *126:6 5.52238e-05
17 *613:A *151:10 0.000580978
18 *520:B *520:A 5.52302e-05
19 *578:D *613:A 0.000149059
*RES
1 *579:Q *110:4 9.3 
2 *110:4 *520:A 22.6214 
3 *110:4 *613:A 37.425 
*END

*D_NET *111 0.00885678
*CONN
*I *614:A I *D sky130_fd_sc_hd__buf_2
*I *602:A I *D sky130_fd_sc_hd__dlygate4sd3_1
*I *596:A I *D sky130_fd_sc_hd__clkbuf_2
*I *571:Q O *D sky130_fd_sc_hd__dfxtp_1
*CAP
1 *614:A 0
2 *602:A 0
3 *596:A 0.00128501
4 *571:Q 4.55677e-05
5 *111:44 0.00175816
6 *111:10 0.00135904
7 *111:8 0.00187776
8 *596:A *511:A1 0.000446097
9 *596:A *114:62 0.000268359
10 *111:8 *126:24 4.45768e-06
11 *111:10 *503:A_N 0
12 *111:44 *503:A_N 0
13 *111:44 *629:A 0
14 *111:44 *126:24 0.000576864
15 *111:44 *128:37 0
16 adc_out[5] *111:44 0
17 adc_out[6] *111:44 0
18 *517:B1 *111:44 0.000113083
19 *520:B *596:A 0.000222892
20 *520:B *111:10 0.00015304
21 *520:B *111:44 0.000106403
22 *550:A *596:A 0.000350503
23 *550:B *596:A 5.71472e-05
24 *99:15 *596:A 0.000232399
*RES
1 *571:Q *111:8 14.3357 
2 *111:8 *111:10 1.94643 
3 *111:10 *596:A 40.1929 
4 *111:10 *602:A 13.8 
5 *111:8 *111:44 46.3393 
6 *111:44 *614:A 9.3 
*END

*D_NET *112 0.0195128
*CONN
*I *530:B1 I *D sky130_fd_sc_hd__o21a_1
*I *507:A1 I *D sky130_fd_sc_hd__o211a_1
*I *500:A I *D sky130_fd_sc_hd__inv_2
*I *615:A I *D sky130_fd_sc_hd__buf_2
*I *580:Q O *D sky130_fd_sc_hd__dfxtp_1
*CAP
1 *530:B1 0
2 *507:A1 0.00174631
3 *500:A 0.000550472
4 *615:A 0.00125271
5 *580:Q 0
6 *112:31 0.00482522
7 *112:25 0.00359913
8 *112:4 0.00232341
9 *500:A *535:B1 0
10 *500:A *545:B1 0
11 *500:A *115:52 2.04825e-05
12 *500:A *119:23 0.00014285
13 *500:A *120:47 0
14 *500:A *134:27 0
15 *615:A *113:25 0.000366344
16 *534:A1 *112:25 0.000314805
17 *534:A2 *112:31 0
18 *534:B1 *112:25 4.87995e-05
19 *538:A *500:A 0.000587915
20 *538:B *500:A 1.18064e-05
21 *539:A1 *500:A 0.000251328
22 *539:A3 *500:A 0.000123137
23 *544:A3 *112:25 0
24 *547:B1 *500:A 0
25 *556:A3 *500:A 3.25224e-05
26 *570:A2 *112:25 1.02504e-05
27 *570:A2 *112:31 4.5539e-05
28 *580:D *112:25 0.000346131
29 *611:A *615:A 4.22908e-05
30 *60:57 *500:A 0.00014285
31 *76:14 *112:31 0.000613035
32 *80:39 *507:A1 0
33 *80:73 *507:A1 0.000402912
34 *80:81 *507:A1 4.15592e-05
35 *89:42 *112:25 0
36 *90:27 *507:A1 0.000211486
37 *90:27 *112:31 0.00139197
38 *109:12 *112:25 6.75122e-05
*RES
1 *580:Q *112:4 9.3 
2 *112:4 *615:A 41.7464 
3 *112:4 *112:25 20.8929 
4 *112:25 *112:31 10.5954 
5 *112:31 *500:A 30.9868 
6 *112:31 *507:A1 21.9452 
7 *112:25 *530:B1 13.8 
*END

*D_NET *113 0.0129038
*CONN
*I *499:A I *D sky130_fd_sc_hd__inv_2
*I *616:A I *D sky130_fd_sc_hd__buf_2
*I *509:A1 I *D sky130_fd_sc_hd__o211a_1
*I *581:Q O *D sky130_fd_sc_hd__dfxtp_1
*CAP
1 *499:A 2.23854e-05
2 *616:A 2.23854e-05
3 *509:A1 0
4 *581:Q 0.000115328
5 *113:25 0.0031013
6 *113:23 0.004487
7 *113:10 0.00150102
8 *113:23 *498:A 0
9 *113:23 *118:36 0.000358973
10 *113:25 *617:A 5.49489e-05
11 *113:25 *618:A 0.000274288
12 *113:25 *619:A 0.000417443
13 *113:25 *118:25 0.000274294
14 *113:25 *118:36 0.00150399
15 dac_in[2] *113:25 0.000143651
16 *509:B1 *113:10 6.65398e-05
17 *550:B *113:23 0
18 *573:D *113:10 2.56694e-05
19 *581:CLK *113:10 5.71472e-05
20 *585:CLK *113:23 9.77024e-05
21 *615:A *113:25 0.000366344
22 *104:10 *113:10 0
23 *104:10 *113:23 0
24 *104:12 *113:10 1.33343e-05
*RES
1 *581:Q *113:10 15.9786 
2 *113:10 *509:A1 13.8 
3 *113:10 *113:23 28.5179 
4 *113:23 *113:25 59.6786 
5 *113:25 *616:A 9.72857 
6 *113:23 *499:A 9.72857 
*END

*D_NET *114 0.0189527
*CONN
*I *511:A1 I *D sky130_fd_sc_hd__o211a_1
*I *498:A I *D sky130_fd_sc_hd__inv_2
*I *540:B1 I *D sky130_fd_sc_hd__o41a_1
*I *617:A I *D sky130_fd_sc_hd__buf_2
*I *582:Q O *D sky130_fd_sc_hd__dfxtp_1
*CAP
1 *511:A1 0.00117519
2 *498:A 0.000571647
3 *540:B1 0.000121969
4 *617:A 0.000357137
5 *582:Q 0.000194759
6 *114:62 0.00211947
7 *114:60 0.00198312
8 *114:35 0.00343636
9 *114:6 0.00225581
10 *498:A *503:B 0
11 *498:A *626:A 0
12 *540:B1 *533:C1 5.33005e-05
13 *540:B1 *540:A3 5.33005e-05
14 *114:35 *536:A_N 0.000223913
15 *114:35 *541:A 5.03772e-05
16 *114:35 *541:B 6.80963e-05
17 *114:35 *115:28 0
18 *114:35 *132:60 5.83304e-05
19 *114:35 *133:91 2.70899e-05
20 *114:60 *522:A 3.65178e-05
21 *114:60 *601:A 4.87854e-05
22 *114:60 *129:12 7.22263e-05
23 *114:60 *129:16 5.74499e-06
24 *114:60 *132:77 9.46929e-05
25 *114:60 *135:99 0.00012401
26 *114:60 *136:29 8.6851e-05
27 *504:D_N *114:60 9.1084e-05
28 *511:A2 *511:A1 0.000150618
29 *532:A_N *114:60 2.59355e-05
30 *533:A1 *114:60 9.60939e-05
31 *533:A2 *540:B1 1.86816e-05
32 *540:A4 *540:B1 6.6789e-05
33 *540:A4 *114:60 1.21258e-05
34 *542:A *114:35 0.000271345
35 *542:B *114:35 3.48705e-05
36 *549:A *114:60 0.000399841
37 *549:C_N *114:60 7.03295e-05
38 *550:A *114:60 8.3725e-05
39 *550:A *114:62 8.07313e-05
40 *550:B *114:62 2.89114e-05
41 *552:A2 *114:62 0.00014285
42 *559:A1 *114:35 0.000168777
43 *559:C1 *114:35 2.40966e-05
44 *579:CLK *498:A 0
45 *582:D *114:35 0.000358895
46 *595:A *114:60 8.37104e-05
47 *596:A *511:A1 0.000446097
48 *596:A *114:62 0.000268359
49 *56:25 *114:35 2.05757e-05
50 *62:14 *114:60 0.0012993
51 *80:94 *511:A1 0.000295851
52 *98:10 *114:35 5.4891e-05
53 *99:8 *114:60 0.000221634
54 *99:15 *114:60 0.000128886
55 *104:10 *498:A 0.000103267
56 *104:60 *511:A1 0.000391576
57 *104:69 *511:A1 4.80729e-05
58 *104:100 *498:A 0
59 *107:53 *114:60 0.00012401
60 *109:18 *114:60 6.71755e-05
61 *113:23 *498:A 0
62 *113:25 *617:A 5.49489e-05
*RES
1 *582:Q *114:6 11.4786 
2 *114:6 *617:A 24.7286 
3 *114:6 *114:35 36.2679 
4 *114:35 *540:B1 11.8 
5 *114:35 *114:60 42.6786 
6 *114:60 *114:62 8.33929 
7 *114:62 *498:A 27.5321 
8 *114:62 *511:A1 41.675 
*END

*D_NET *115 0.0170078
*CONN
*I *618:A I *D sky130_fd_sc_hd__buf_2
*I *513:A1 I *D sky130_fd_sc_hd__o211a_1
*I *497:A I *D sky130_fd_sc_hd__inv_2
*I *583:Q O *D sky130_fd_sc_hd__dfxtp_1
*CAP
1 *618:A 0.000254975
2 *513:A1 0.00064076
3 *497:A 0.00017185
4 *583:Q 0.000525429
5 *115:54 0.00108785
6 *115:52 0.00230868
7 *115:28 0.00284616
8 *115:10 0.00159313
9 *497:A *521:A1 9.60875e-05
10 *497:A *545:B1 0.00028542
11 *497:A *626:A 5.58941e-05
12 *497:A *120:47 0.000403323
13 *513:A1 *503:A_N 9.41642e-05
14 *513:A1 *503:B 0.000101545
15 *513:A1 *120:47 7.36043e-05
16 *115:28 *492:A 9.90431e-05
17 *115:28 *531:A_N 5.43697e-05
18 *115:28 *541:B 0
19 *115:28 *133:91 0.000174527
20 *115:52 *525:A 9.60939e-05
21 *115:52 *525:C 1.95435e-05
22 *115:52 *554:A 7.32955e-05
23 *115:52 *554:C 7.48301e-06
24 *115:52 *557:A3 2.89016e-05
25 *115:52 *557:B1 4.17099e-05
26 *115:52 *120:47 0.000371382
27 *115:54 *503:A_N 9.71197e-05
28 *115:54 *545:B1 0.000473823
29 *115:54 *120:47 0.00135195
30 *500:A *115:52 2.04825e-05
31 *513:A2 *513:A1 8.23597e-06
32 *513:B1 *513:A1 3.52408e-05
33 *521:A2 *513:A1 0.000151244
34 *539:A1 *115:52 1.90936e-05
35 *551:A1 *115:52 1.40357e-05
36 *554:B *115:52 7.48301e-06
37 *554:D *115:52 0.000309266
38 *556:A2 *115:52 0.000133441
39 *556:B1 *115:52 4.11218e-05
40 *557:A1 *115:52 0.000170955
41 *559:A1 *115:28 0
42 *560:A1 *115:28 0
43 *562:C1 *115:52 0.000101169
44 *579:CLK *497:A 9.60875e-05
45 *583:CLK *115:10 0.000249595
46 *583:D *115:10 0.000171899
47 *583:D *115:28 0.00110674
48 *586:CLK *115:28 5.52238e-05
49 *586:D *115:28 3.25247e-05
50 *43:22 *115:28 0.000257894
51 *79:36 *513:A1 1.66856e-05
52 *90:27 *115:52 0
53 *99:19 *115:52 4.28365e-05
54 *104:100 *497:A 3.57844e-05
55 *104:100 *513:A1 0
56 *107:53 *115:28 0.000109887
57 *107:53 *115:52 5.5518e-05
58 *107:60 *115:52 6.3001e-05
59 *113:25 *618:A 0.000274288
60 *114:35 *115:28 0
*RES
1 *583:Q *115:10 21.2286 
2 *115:10 *115:28 34.5 
3 *115:28 *115:52 40.4448 
4 *115:52 *115:54 12.8571 
5 *115:54 *497:A 24.5321 
6 *115:54 *513:A1 38.5054 
7 *115:10 *618:A 19.2464 
*END

*D_NET *116 0.0125259
*CONN
*I *515:A1 I *D sky130_fd_sc_hd__o211a_1
*I *619:A I *D sky130_fd_sc_hd__buf_2
*I *496:A I *D sky130_fd_sc_hd__inv_2
*I *584:Q O *D sky130_fd_sc_hd__dfxtp_1
*CAP
1 *515:A1 0.000324323
2 *619:A 0.00178467
3 *496:A 0
4 *584:Q 0.000346874
5 *116:23 0.00432137
6 *116:10 0.00295949
7 *116:6 0.00109399
8 *515:A1 *515:C1 2.89114e-05
9 *619:A *118:25 0.000106467
10 *619:A *118:36 0.000260427
11 *116:10 *519:C1 0
12 *116:10 *136:83 0
13 *116:10 *136:94 0
14 *116:23 *519:C1 0
15 *116:23 *120:12 0.00044468
16 dac_in[7] *619:A 0.000108538
17 dac_in_n[4] *116:23 0
18 *520:A *116:10 0.000148189
19 *520:A *116:23 4.80729e-05
20 *520:B *116:10 0
21 *80:94 *515:A1 5.83304e-05
22 *80:107 *515:A1 1.58163e-05
23 *104:69 *515:A1 5.83304e-05
24 *113:25 *619:A 0.000417443
*RES
1 *584:Q *116:6 14.3536 
2 *116:6 *116:10 12.2143 
3 *116:10 *496:A 13.8 
4 *116:10 *116:23 45.8571 
5 *116:23 *619:A 44.0857 
6 *116:6 *515:A1 23.675 
*END

*D_NET *117 0.0123213
*CONN
*I *517:A1 I *D sky130_fd_sc_hd__o211a_1
*I *495:A I *D sky130_fd_sc_hd__inv_2
*I *620:A I *D sky130_fd_sc_hd__buf_2
*I *585:Q O *D sky130_fd_sc_hd__dfxtp_1
*CAP
1 *517:A1 5.99246e-05
2 *495:A 7.98798e-05
3 *620:A 0
4 *585:Q 0
5 *117:45 0.00151172
6 *117:20 0.00271756
7 *117:4 0.00408947
8 *495:A *519:C1 4.33438e-05
9 *495:A *627:A 5.59013e-05
10 *495:A *126:24 5.01213e-05
11 *517:A1 *128:37 0.000139913
12 *117:20 *493:A 1.39726e-05
13 *117:20 *521:A1 3.19457e-05
14 *117:20 *119:23 0.00112607
15 *117:45 *517:C1 5.52302e-05
16 *117:45 *521:A1 0.000382608
17 *117:45 *625:A 0.000188586
18 *117:45 *626:A 0
19 *117:45 *128:37 0.000722287
20 *517:A2 *517:A1 3.93346e-05
21 *517:A2 *117:45 0
22 *520:A *117:45 3.80277e-05
23 *520:B *117:45 1.92905e-05
24 *521:A2 *117:45 2.07158e-05
25 *562:B1 *117:20 0.000146582
26 *578:CLK *495:A 0
27 *579:CLK *117:45 3.36253e-05
28 *585:CLK *117:20 0.000141326
29 *585:D *117:20 8.70252e-05
30 *586:CLK *117:20 0.000380121
31 *587:CLK *117:20 1.92905e-05
32 *587:D *117:20 3.32132e-06
33 *604:A *117:45 6.09476e-05
34 *43:22 *117:20 1.5107e-05
35 *56:40 *117:20 4.8035e-05
*RES
1 *585:Q *117:4 9.3 
2 *117:4 *117:20 48.7321 
3 *117:20 *620:A 9.3 
4 *117:4 *117:45 33.0179 
5 *117:45 *495:A 20.2464 
6 *117:45 *517:A1 11.0857 
*END

*D_NET *118 0.0112972
*CONN
*I *494:A I *D sky130_fd_sc_hd__inv_2
*I *519:A1 I *D sky130_fd_sc_hd__o211a_1
*I *621:A I *D sky130_fd_sc_hd__buf_2
*I *557:B1 I *D sky130_fd_sc_hd__o41a_1
*I *586:Q O *D sky130_fd_sc_hd__dfxtp_1
*CAP
1 *494:A 0.00047618
2 *519:A1 2.03441e-05
3 *621:A 0
4 *557:B1 0.00038712
5 *586:Q 0
6 *118:36 0.00255981
7 *118:25 0.00225245
8 *118:6 0.000576279
9 *494:A *518:A 0.000363837
10 *494:A *628:A 0.000231464
11 *557:B1 *557:A3 5.52238e-05
12 *118:36 *519:C1 0.000122091
13 *118:36 *535:B1 0.000175502
14 *118:36 *624:A 7.77652e-05
15 *118:36 *626:A 0.000624797
16 dac_in_n[2] *118:36 4.51495e-05
17 dac_in_n[3] *118:36 3.48705e-05
18 dac_in_n[5] *494:A 8.37135e-05
19 *519:B1 *494:A 0.000142053
20 *519:B1 *519:A1 5.7661e-06
21 *519:B1 *118:36 5.17614e-05
22 *558:B *557:B1 5.70731e-05
23 *560:A1 *557:B1 0
24 *613:A *494:A 0.000144773
25 *619:A *118:25 0.000106467
26 *619:A *118:36 0.000260427
27 *56:25 *557:B1 7.6644e-05
28 *78:40 *557:B1 0
29 *103:106 *557:B1 0
30 *107:53 *557:B1 0.000144773
31 *107:60 *557:B1 4.18895e-05
32 *113:23 *118:36 0.000358973
33 *113:25 *118:25 0.000274294
34 *113:25 *118:36 0.00150399
35 *115:52 *557:B1 4.17099e-05
*RES
1 *586:Q *118:6 13.8 
2 *118:6 *557:B1 21.2821 
3 *118:6 *118:25 9.33929 
4 *118:25 *621:A 9.3 
5 *118:25 *118:36 49.5536 
6 *118:36 *519:A1 9.72857 
7 *118:36 *494:A 30.1393 
*END

*D_NET *119 0.00595043
*CONN
*I *493:A I *D sky130_fd_sc_hd__inv_2
*I *603:A I *D sky130_fd_sc_hd__dlygate4sd3_1
*I *622:A I *D sky130_fd_sc_hd__buf_2
*I *587:Q O *D sky130_fd_sc_hd__dfxtp_1
*CAP
1 *493:A 0.000523369
2 *603:A 0
3 *622:A 0.000124392
4 *587:Q 0
5 *119:23 0.00078358
6 *119:4 0.000384602
7 *493:A *535:B1 0
8 *493:A *551:B1 0.000527871
9 *493:A *561:B1 0.000274697
10 *622:A *120:20 0
11 *119:23 *561:B1 5.54547e-05
12 dac_in[7] *622:A 4.48583e-05
13 *500:A *119:23 0.00014285
14 *502:A *493:A 0.000177821
15 *551:A2 *493:A 5.52302e-05
16 *553:A1 *493:A 0.000315165
17 *556:A1 *493:A 4.72917e-05
18 *556:B1 *493:A 5.52238e-05
19 *562:B1 *119:23 0.000197634
20 *585:CLK *493:A 0.000616988
21 *585:D *493:A 9.95285e-05
22 *585:D *119:23 2.14757e-05
23 *60:49 *119:23 8.51775e-05
24 *60:57 *119:23 0.000246519
25 *99:30 *493:A 3.06511e-05
26 *117:20 *493:A 1.39726e-05
27 *117:20 *119:23 0.00112607
*RES
1 *587:Q *119:4 9.3 
2 *119:4 *622:A 20.55 
3 *119:4 *119:23 12.6071 
4 *119:23 *603:A 9.3 
5 *119:23 *493:A 35.8714 
*END

*D_NET *120 0.0187403
*CONN
*I *521:C1 I *D sky130_fd_sc_hd__o211a_1
*I *601:A I *D sky130_fd_sc_hd__buf_2
*I *611:X O *D sky130_fd_sc_hd__buf_1
*CAP
1 *521:C1 0
2 *601:A 0.00018308
3 *611:X 6.8104e-05
4 *120:47 0.00146211
5 *120:20 0.00219121
6 *120:12 0.00532216
7 *120:10 0.00484424
8 *601:A *525:A 0.000360816
9 *601:A *525:C 3.84385e-05
10 *601:A *136:29 9.80173e-05
11 *120:20 *623:A 0
12 *120:20 *134:40 0
13 *120:47 *503:B 3.80904e-05
14 *120:47 *525:A 5.52302e-05
15 *120:47 *535:B1 9.25014e-06
16 *120:47 *545:B1 1.57414e-05
17 *120:47 *554:C 7.77751e-05
18 *120:47 *571:CLK 3.06406e-05
19 *120:47 *134:40 4.14279e-05
20 dac_in[0] *120:10 0
21 dac_in[7] *120:20 0
22 *497:A *120:47 0.000403323
23 *500:A *120:47 0
24 *513:A1 *120:47 7.36043e-05
25 *521:A2 *120:47 1.8104e-05
26 *521:B1 *120:47 7.73758e-05
27 *532:A_N *601:A 9.25014e-06
28 *535:A1 *120:47 0.000392132
29 *539:A1 *120:47 7.77751e-05
30 *545:A2 *120:20 0
31 *547:A1 *120:20 5.31101e-05
32 *547:A2 *120:20 4.69996e-05
33 *547:B1 *120:20 5.74562e-05
34 *547:B2 *120:20 0
35 *556:A2 *120:20 2.21972e-05
36 *592:A *601:A 4.54254e-05
37 *622:A *120:20 0
38 *56:44 *120:20 3.7519e-05
39 *60:42 *120:20 0
40 *62:14 *601:A 0.000128154
41 *92:12 *120:20 0
42 *94:31 *120:20 5.41514e-05
43 *94:43 *120:20 0
44 *94:43 *120:47 0.00018372
45 *99:19 *120:47 0
46 *104:100 *120:47 6.8646e-06
47 *114:60 *601:A 4.87854e-05
48 *115:52 *120:47 0.000371382
49 *115:54 *120:47 0.00135195
50 *116:23 *120:12 0.00044468
*RES
1 *611:X *120:10 19.3357 
2 *120:10 *120:12 55.9821 
3 *120:12 *120:20 14.3929 
4 *120:20 *601:A 19.7286 
5 *120:20 *120:47 46.75 
6 *120:47 *521:C1 13.8 
*END

*D_NET *121 0.000242439
*CONN
*I *623:A I *D sky130_fd_sc_hd__buf_2
*I *500:Y O *D sky130_fd_sc_hd__inv_2
*CAP
1 *623:A 0.00012122
2 *500:Y 0.00012122
3 *623:A *535:B1 0
4 *120:20 *623:A 0
*RES
1 *500:Y *623:A 29.5464 
*END

*D_NET *122 0.00196666
*CONN
*I *624:A I *D sky130_fd_sc_hd__buf_2
*I *535:B1 I *D sky130_fd_sc_hd__a21o_1
*I *499:Y O *D sky130_fd_sc_hd__inv_2
*CAP
1 *624:A 0.000147578
2 *535:B1 0.000574986
3 *499:Y 0
4 *122:4 0.000722564
5 *535:B1 *545:B1 4.33524e-05
6 *493:A *535:B1 0
7 *500:A *535:B1 0
8 *556:A2 *535:B1 6.39578e-05
9 *556:A3 *535:B1 0
10 *585:D *535:B1 5.01213e-05
11 *623:A *535:B1 0
12 *60:57 *535:B1 6.73091e-05
13 *99:19 *535:B1 4.1331e-06
14 *99:30 *535:B1 3.0145e-05
15 *118:36 *535:B1 0.000175502
16 *118:36 *624:A 7.77652e-05
17 *120:47 *535:B1 9.25014e-06
*RES
1 *499:Y *122:4 9.3 
2 *122:4 *535:B1 28.1036 
3 *122:4 *624:A 20.6929 
*END

*D_NET *123 0.000737865
*CONN
*I *625:A I *D sky130_fd_sc_hd__buf_2
*I *498:Y O *D sky130_fd_sc_hd__inv_2
*CAP
1 *625:A 0.000199327
2 *498:Y 0.000199327
3 *625:A *626:A 0.000150625
4 *117:45 *625:A 0.000188586
*RES
1 *498:Y *625:A 31.3143 
*END

*D_NET *124 0.00619812
*CONN
*I *626:A I *D sky130_fd_sc_hd__buf_2
*I *545:B1 I *D sky130_fd_sc_hd__a21oi_1
*I *497:Y O *D sky130_fd_sc_hd__inv_2
*CAP
1 *626:A 0.000400566
2 *545:B1 0.000870372
3 *497:Y 0
4 *124:6 0.00127094
5 *545:B1 *503:A_N 2.89114e-05
6 *545:B1 *126:24 0.00109201
7 dac_in_n[2] *626:A 2.89114e-05
8 dac_in_n[3] *626:A 7.43578e-06
9 *497:A *545:B1 0.00028542
10 *497:A *626:A 5.58941e-05
11 *498:A *626:A 0
12 *500:A *545:B1 0
13 *535:A1 *545:B1 0.000229456
14 *535:B1 *545:B1 4.33524e-05
15 *548:A1 *545:B1 7.43578e-06
16 *555:A *545:B1 0.000139907
17 *555:B *545:B1 1.21258e-05
18 *556:A3 *545:B1 8.87196e-05
19 *579:CLK *545:B1 0.000148196
20 *625:A *626:A 0.000150625
21 *78:68 *545:B1 7.70047e-05
22 *104:100 *545:B1 0.000146474
23 *115:54 *545:B1 0.000473823
24 *117:45 *626:A 0
25 *118:36 *626:A 0.000624797
26 *120:47 *545:B1 1.57414e-05
*RES
1 *497:Y *124:6 13.8 
2 *124:6 *545:B1 47.8 
3 *124:6 *626:A 23.1393 
*END

*D_NET *125 0.0053588
*CONN
*I *627:A I *D sky130_fd_sc_hd__buf_2
*I *551:B1 I *D sky130_fd_sc_hd__a21o_1
*I *496:Y O *D sky130_fd_sc_hd__inv_2
*CAP
1 *627:A 0.00029949
2 *551:B1 0.00150049
3 *496:Y 0
4 *125:4 0.00179998
5 *551:B1 *579:D 0.000129944
6 *627:A *519:C1 0.000272672
7 *493:A *551:B1 0.000527871
8 *495:A *627:A 5.59013e-05
9 *502:A *551:B1 1.21289e-05
10 *519:A2 *627:A 0
11 *521:B1 *551:B1 0.00057215
12 *613:A *551:B1 2.22999e-05
13 *613:A *627:A 0.000165873
*RES
1 *496:Y *125:4 9.3 
2 *125:4 *551:B1 38.8 
3 *125:4 *627:A 24.3536 
*END

*D_NET *126 0.00953934
*CONN
*I *628:A I *D sky130_fd_sc_hd__buf_2
*I *553:B1 I *D sky130_fd_sc_hd__a21o_1
*I *495:Y O *D sky130_fd_sc_hd__inv_2
*CAP
1 *628:A 0.000807266
2 *553:B1 0
3 *495:Y 3.92359e-05
4 *126:24 0.00204373
5 *126:6 0.00289023
6 *628:A *518:B 0
7 *628:A *606:A 5.71472e-05
8 *628:A *629:A 0
9 *126:24 *503:A_N 0.000221046
10 *126:24 *503:B 5.52238e-05
11 *126:24 *561:B1 3.10885e-05
12 *126:24 *136:94 0
13 dac_in_n[5] *628:A 5.33433e-05
14 *494:A *628:A 0.000231464
15 *495:A *126:24 5.01213e-05
16 *517:B1 *126:24 0.000208271
17 *545:B1 *126:24 0.00109201
18 *550:B *126:24 1.92568e-05
19 *552:A3 *126:24 7.83659e-05
20 *556:B1 *126:24 0
21 *578:CLK *126:24 6.82922e-05
22 *613:A *628:A 0.000880687
23 *613:A *126:6 5.52238e-05
24 *104:69 *126:24 7.6021e-05
25 *111:8 *126:24 4.45768e-06
26 *111:44 *126:24 0.000576864
*RES
1 *495:Y *126:6 9.83571 
2 *126:6 *126:24 49.4464 
3 *126:24 *553:B1 9.3 
4 *126:6 *628:A 42.3536 
*END

*D_NET *127 0.000789721
*CONN
*I *629:A I *D sky130_fd_sc_hd__buf_2
*I *494:Y O *D sky130_fd_sc_hd__inv_2
*CAP
1 *629:A 0.000337959
2 *494:Y 0.000337959
3 *629:A *606:A 0
4 *629:A *637:A 8.90314e-05
5 *613:A *629:A 2.47724e-05
6 *628:A *629:A 0
7 *111:44 *629:A 0
*RES
1 *494:Y *629:A 32.5464 
*END

*D_NET *128 0.0131016
*CONN
*I *630:A I *D sky130_fd_sc_hd__buf_2
*I *561:B1 I *D sky130_fd_sc_hd__a21oi_1
*I *493:Y O *D sky130_fd_sc_hd__inv_2
*CAP
1 *630:A 0
2 *561:B1 0.00152187
3 *493:Y 0
4 *128:37 0.00243085
5 *128:4 0.00395272
6 *128:37 *516:A 6.04256e-05
7 *128:37 *571:CLK 9.71197e-05
8 *128:37 *636:A 0.000540398
9 *128:37 *150:8 0.000202891
10 adc_out[6] *128:37 3.15196e-05
11 adc_out[7] *128:37 9.96215e-05
12 *493:A *561:B1 0.000274697
13 *502:A *561:B1 0.000209197
14 *502:A *128:37 0.000185643
15 *517:A1 *128:37 0.000139913
16 *517:A2 *128:37 7.48301e-06
17 *520:A *128:37 0.000186662
18 *521:B1 *128:37 0.00018649
19 *551:A2 *561:B1 5.52302e-05
20 *552:A3 *561:B1 0.000278819
21 *556:B1 *561:B1 6.4974e-06
22 *577:CLK *128:37 2.95726e-05
23 *577:D *128:37 0.000171906
24 *585:CLK *561:B1 0.000618905
25 *585:D *561:B1 0.000269428
26 *60:49 *561:B1 6.71755e-05
27 *60:57 *561:B1 0.00066774
28 *111:44 *128:37 0
29 *117:45 *128:37 0.000722287
30 *119:23 *561:B1 5.54547e-05
31 *126:24 *561:B1 3.10885e-05
*RES
1 *493:Y *128:4 9.3 
2 *128:4 *561:B1 45.3 
3 *128:4 *128:37 48.6429 
4 *128:37 *630:A 9.3 
*END

*D_NET *129 0.0127599
*CONN
*I *532:C I *D sky130_fd_sc_hd__and3b_1
*I *525:A I *D sky130_fd_sc_hd__and3_1
*I *524:A I *D sky130_fd_sc_hd__nand2_1
*I *563:A I *D sky130_fd_sc_hd__or2_1
*I *565:A1 I *D sky130_fd_sc_hd__a21o_1
*I *526:A I *D sky130_fd_sc_hd__nand3_1
*I *528:A I *D sky130_fd_sc_hd__nand4_1
*I *541:C_N I *D sky130_fd_sc_hd__nor3b_2
*I *536:D I *D sky130_fd_sc_hd__and4bb_1
*I *533:D1 I *D sky130_fd_sc_hd__o2111a_1
*I *596:X O *D sky130_fd_sc_hd__clkbuf_2
*CAP
1 *532:C 0
2 *525:A 0.000267188
3 *524:A 0.000163805
4 *563:A 0
5 *565:A1 0
6 *526:A 0.000232002
7 *528:A 0
8 *541:C_N 0.00018926
9 *536:D 9.72258e-05
10 *533:D1 0
11 *596:X 0.000206576
12 *129:98 0.000254495
13 *129:55 0.000367284
14 *129:46 0.000447203
15 *129:40 0.000704232
16 *129:26 0.000569829
17 *129:24 0.000579306
18 *129:22 0.00166172
19 *129:16 0.00149301
20 *129:12 0.000440671
21 *524:A *537:C 5.52302e-05
22 *525:A *554:C 1.21258e-05
23 *525:A *132:81 0
24 *526:A *565:A2 9.0573e-05
25 *526:A *135:43 0.000234506
26 *541:C_N *541:B 0
27 *129:16 *136:29 0.00026353
28 *129:22 *522:A 0
29 *129:22 *134:12 0.000164696
30 *129:24 *565:A2 2.89114e-05
31 *129:40 *528:C 0.000783101
32 *129:40 *565:A2 0.000113554
33 *129:40 *565:B1 4.38128e-05
34 *129:46 *132:14 0
35 *129:46 *132:34 0
36 *129:46 *132:49 0.000221821
37 *129:46 *135:64 0
38 *504:D_N *524:A 0
39 *505:A *129:22 6.03829e-05
40 *524:B *524:A 2.8266e-06
41 *524:B *129:22 6.30931e-05
42 *532:A_N *525:A 2.16719e-05
43 *532:A_N *129:22 4.59234e-05
44 *538:B *129:12 5.03772e-05
45 *542:A *541:C_N 0
46 *543:A_N *541:C_N 4.98872e-05
47 *543:A_N *129:46 4.58192e-05
48 *543:A_N *129:55 5.74562e-05
49 *543:B_N *536:D 7.77751e-05
50 *544:A2 *541:C_N 0
51 *549:B *526:A 0
52 *568:C *129:40 4.18895e-05
53 *568:C *129:46 5.71472e-05
54 *570:B1 *524:A 5.52302e-05
55 *570:B1 *526:A 9.60875e-05
56 *588:CLK *524:A 0
57 *588:CLK *129:98 0
58 *588:D *129:22 8.42801e-05
59 *590:D *129:40 0
60 *601:A *525:A 0.000360816
61 *76:14 *524:A 0
62 *89:36 *129:40 5.52238e-05
63 *89:36 *129:46 5.52302e-05
64 *89:42 *129:46 0
65 *91:12 *524:A 4.15914e-05
66 *91:23 *524:A 0
67 *93:6 *526:A 4.87854e-05
68 *93:14 *526:A 4.61259e-05
69 *94:12 *129:46 0
70 *94:12 *129:55 0
71 *94:23 *541:C_N 0
72 *94:23 *129:55 0
73 *99:8 *129:12 0.000225763
74 *99:15 *129:12 5.52302e-05
75 *103:12 *524:A 9.05981e-05
76 *103:26 *129:40 4.59075e-05
77 *105:10 *129:22 8.7658e-05
78 *107:10 *129:40 8.00806e-05
79 *107:21 *129:40 4.56437e-05
80 *107:21 *129:46 6.55821e-05
81 *108:18 *524:A 1.34195e-05
82 *108:18 *129:24 6.61906e-05
83 *108:18 *129:40 0.000544936
84 *108:18 *129:98 3.0285e-05
85 *109:18 *129:46 7.60306e-05
86 *114:60 *129:12 7.22263e-05
87 *114:60 *129:16 5.74499e-06
88 *115:52 *525:A 9.60939e-05
89 *120:47 *525:A 5.52302e-05
*RES
1 *596:X *129:12 14.6036 
2 *129:12 *129:16 7.5 
3 *129:16 *129:22 18.7321 
4 *129:22 *129:24 7.10714 
5 *129:24 *129:26 4.5 
6 *129:26 *129:40 26.7857 
7 *129:40 *129:46 12.75 
8 *129:46 *533:D1 13.8 
9 *129:46 *129:55 1.64286 
10 *129:55 *536:D 15.1571 
11 *129:55 *541:C_N 17.2643 
12 *129:40 *528:A 9.3 
13 *129:26 *526:A 19.1214 
14 *129:24 *565:A1 9.3 
15 *129:22 *129:98 5.83929 
16 *129:98 *563:A 13.8 
17 *129:98 *524:A 17.4964 
18 *129:16 *525:A 20.0321 
19 *129:12 *532:C 9.3 
*END

*D_NET *130 0.00489922
*CONN
*I *510:B I *D sky130_fd_sc_hd__or2_1
*I *518:B I *D sky130_fd_sc_hd__or2_1
*I *516:B I *D sky130_fd_sc_hd__or2_1
*I *514:B I *D sky130_fd_sc_hd__or2_1
*I *506:B I *D sky130_fd_sc_hd__or2_1
*I *612:X O *D sky130_fd_sc_hd__buf_1
*CAP
1 *510:B 0
2 *518:B 0.000404131
3 *516:B 0
4 *514:B 1.1624e-05
5 *506:B 0.00011908
6 *612:X 0.000668943
7 *130:36 0.000801868
8 *130:25 0.000596554
9 *130:21 0.000487922
10 *130:8 0.00108875
11 *514:B *514:A 5.52238e-05
12 *514:B *634:A 5.52238e-05
13 *518:B *516:A 7.252e-05
14 *130:21 *510:A 9.90367e-05
15 *130:21 *511:C1 5.71472e-05
16 *130:36 *514:A 0
17 *130:36 *516:A 5.80706e-06
18 *511:B1 *130:21 0.000149489
19 *519:A2 *518:B 0
20 *574:D *130:21 5.52238e-05
21 *575:D *130:8 1.76204e-05
22 *576:D *130:36 0
23 *578:D *518:B 0.000153054
24 *628:A *518:B 0
25 *80:107 *518:B 0
26 *80:107 *130:36 0
27 *104:60 *506:B 0
28 *104:60 *130:25 0
29 *104:60 *130:36 0
30 *104:69 *130:36 0
*RES
1 *612:X *130:8 19.3 
2 *130:8 *506:B 20.2464 
3 *130:8 *130:21 5.875 
4 *130:21 *130:25 7.66071 
5 *130:25 *514:B 14.3357 
6 *130:25 *130:36 7.10714 
7 *130:36 *516:B 13.8 
8 *130:36 *518:B 21.5143 
9 *130:21 *510:B 9.3 
*END

*D_NET *131 0.00442457
*CONN
*I *631:A I *D sky130_fd_sc_hd__buf_2
*I *506:A I *D sky130_fd_sc_hd__or2_1
*I *572:Q O *D sky130_fd_sc_hd__dfxtp_1
*CAP
1 *631:A 0.00163671
2 *506:A 4.86283e-05
3 *572:Q 0
4 *131:4 0.00168534
5 *631:A *633:A 0.000590834
6 *631:A *147:8 0.000119297
7 adc_out[2] *631:A 1.21955e-05
8 *574:D *631:A 7.01199e-06
9 *104:56 *506:A 0.000188586
10 *104:56 *631:A 0.000135965
*RES
1 *572:Q *131:4 9.3 
2 *131:4 *506:A 11.8 
3 *131:4 *631:A 46.8357 
*END

*D_NET *132 0.0120535
*CONN
*I *536:A_N I *D sky130_fd_sc_hd__and4bb_1
*I *546:A I *D sky130_fd_sc_hd__nor2_2
*I *554:A I *D sky130_fd_sc_hd__or4_1
*I *537:A I *D sky130_fd_sc_hd__or4_1
*I *505:D_N I *D sky130_fd_sc_hd__or4b_4
*I *540:A1 I *D sky130_fd_sc_hd__o41a_1
*I *527:A_N I *D sky130_fd_sc_hd__and2b_1
*I *530:A1 I *D sky130_fd_sc_hd__o21a_1
*I *529:A I *D sky130_fd_sc_hd__or2_1
*I *569:A I *D sky130_fd_sc_hd__nand2_1
*I *597:X O *D sky130_fd_sc_hd__clkbuf_2
*CAP
1 *536:A_N 0.000321175
2 *546:A 0
3 *554:A 0.000154491
4 *537:A 1.40568e-05
5 *505:D_N 0.00013369
6 *540:A1 0
7 *527:A_N 0
8 *530:A1 0.000200923
9 *529:A 0
10 *569:A 8.90156e-05
11 *597:X 0.000197204
12 *132:81 0.000381201
13 *132:79 0.000387946
14 *132:77 0.000772616
15 *132:62 0.000772616
16 *132:60 0.000530915
17 *132:49 0.000424122
18 *132:34 0.000503566
19 *132:14 0.000296301
20 *132:8 0.000492751
21 *505:D_N *522:A 0.000191835
22 *536:A_N *133:91 0.000134868
23 *554:A *554:C 5.62995e-05
24 *132:81 *522:A 0.000119778
25 *504:D_N *537:A 2.89016e-05
26 *522:B *505:D_N 8.07313e-05
27 *525:A *132:81 0
28 *529:B *569:A 1.61893e-05
29 *540:A4 *132:77 0.000335208
30 *543:D *132:60 9.71197e-05
31 *546:B *132:77 0.000397918
32 *554:B *554:A 7.32272e-05
33 *554:D *554:A 0.000139907
34 *559:A1 *132:60 1.3142e-05
35 *559:A2 *536:A_N 8.25843e-06
36 *559:B1 *536:A_N 9.46929e-05
37 *569:B *569:A 3.76337e-05
38 *570:A2 *530:A1 5.71472e-05
39 *570:B1 *530:A1 0.000122091
40 *570:B1 *132:49 0.000167988
41 *593:A *132:77 5.52238e-05
42 *597:A *132:14 5.33005e-05
43 *599:A *505:D_N 0.000139907
44 *60:8 *132:77 5.97398e-05
45 *60:42 *554:A 0.000121573
46 *76:27 *132:60 3.4323e-05
47 *89:12 *505:D_N 1.88048e-05
48 *89:42 *132:14 0.000169459
49 *89:42 *132:34 3.59033e-05
50 *89:83 *505:D_N 4.33147e-05
51 *89:83 *554:A 5.34835e-05
52 *89:83 *132:81 0.000125975
53 *91:36 *132:77 0.000703519
54 *95:10 *132:8 0.000141985
55 *95:10 *132:14 0.00043032
56 *95:12 *569:A 4.14279e-05
57 *95:12 *132:14 1.33343e-05
58 *107:21 *132:49 0.0001134
59 *107:38 *132:60 8.66063e-05
60 *107:53 *536:A_N 2.91035e-05
61 *107:53 *132:60 0.000440794
62 *107:81 *537:A 5.52238e-05
63 *109:18 *132:60 0.000569201
64 *114:35 *536:A_N 0.000223913
65 *114:35 *132:60 5.83304e-05
66 *114:60 *132:77 9.46929e-05
67 *115:52 *554:A 7.32955e-05
68 *129:46 *132:14 0
69 *129:46 *132:34 0
70 *129:46 *132:49 0.000221821
*RES
1 *597:X *132:8 16.3893 
2 *132:8 *132:14 9.76786 
3 *132:14 *569:A 11.5143 
4 *132:14 *529:A 9.3 
5 *132:8 *132:34 6.14286 
6 *132:34 *530:A1 13.1214 
7 *132:34 *132:49 14.8571 
8 *132:49 *527:A_N 9.3 
9 *132:49 *132:60 12.5179 
10 *132:60 *132:62 4.5 
11 *132:62 *540:A1 9.3 
12 *132:62 *132:77 18.2679 
13 *132:77 *132:79 4.5 
14 *132:79 *132:81 4.98214 
15 *132:81 *505:D_N 17.7107 
16 *132:81 *537:A 14.3357 
17 *132:79 *554:A 18.6393 
18 *132:77 *546:A 9.3 
19 *132:60 *536:A_N 19.5679 
*END

*D_NET *133 0.0115429
*CONN
*I *537:C I *D sky130_fd_sc_hd__or4_1
*I *557:A3 I *D sky130_fd_sc_hd__o41a_1
*I *526:B I *D sky130_fd_sc_hd__nand3_1
*I *541:A I *D sky130_fd_sc_hd__nor3b_2
*I *531:B I *D sky130_fd_sc_hd__and2b_1
*I *536:B_N I *D sky130_fd_sc_hd__and4bb_1
*I *540:A3 I *D sky130_fd_sc_hd__o41a_1
*I *533:C1 I *D sky130_fd_sc_hd__o2111a_1
*I *565:B1 I *D sky130_fd_sc_hd__a21o_1
*I *528:C I *D sky130_fd_sc_hd__nand4_1
*I *598:X O *D sky130_fd_sc_hd__buf_2
*CAP
1 *537:C 0.000375275
2 *557:A3 0.000388678
3 *526:B 2.30826e-05
4 *541:A 6.96336e-05
5 *531:B 0
6 *536:B_N 6.79398e-05
7 *540:A3 3.54071e-05
8 *533:C1 0.000312602
9 *565:B1 2.18155e-05
10 *528:C 0.000177879
11 *598:X 0
12 *133:116 0.000950107
13 *133:91 0.000466749
14 *133:64 0.000543674
15 *133:42 0.000348009
16 *133:40 0.000388716
17 *133:34 0.000373114
18 *133:12 0.000398679
19 *133:6 0.000344774
20 *133:4 0.00029201
21 *133:12 *565:A2 7.6021e-05
22 *133:12 *135:43 7.65529e-05
23 *133:40 *528:D 3.22304e-05
24 *133:40 *135:51 0.000402784
25 *133:40 *135:64 0.000308592
26 *133:64 *541:B 2.04825e-05
27 *133:64 *135:64 0.000175779
28 *133:91 *531:A_N 6.05161e-06
29 *501:A *557:A3 0
30 *504:D_N *537:C 0.000181796
31 *524:A *537:C 5.52302e-05
32 *533:A1 *533:C1 4.87854e-05
33 *533:A1 *557:A3 0
34 *533:A2 *533:C1 4.39388e-05
35 *536:A_N *133:91 0.000134868
36 *537:B *537:C 2.14757e-05
37 *540:B1 *533:C1 5.33005e-05
38 *540:B1 *540:A3 5.33005e-05
39 *543:B_N *536:B_N 1.98839e-05
40 *544:A1 *533:C1 7.32955e-05
41 *549:B *557:A3 0.0002659
42 *549:B *133:116 8.66063e-05
43 *549:C_N *557:A3 0
44 *557:A1 *557:A3 0
45 *557:A4 *557:A3 6.43427e-05
46 *557:B1 *557:A3 5.52238e-05
47 *558:B *557:A3 0
48 *559:A1 *536:B_N 0
49 *559:A1 *133:64 5.62709e-05
50 *559:A2 *536:B_N 2.286e-05
51 *559:C1 *133:64 7.40526e-05
52 *566:C *528:C 2.44318e-05
53 *567:A *133:12 0
54 *570:B1 *537:C 0.000175779
55 *570:B1 *133:6 7.49387e-06
56 *570:B1 *133:40 4.88637e-05
57 *598:A *537:C 0.000228558
58 *598:A *557:A3 0
59 *598:A *133:116 1.21289e-05
60 *56:25 *541:A 0.000144773
61 *56:25 *133:91 2.90075e-05
62 *76:27 *133:12 0
63 *76:27 *133:40 0.000329993
64 *76:27 *133:64 9.25014e-06
65 *89:36 *528:C 5.80706e-06
66 *93:6 *133:6 9.60875e-05
67 *93:6 *133:116 9.71197e-05
68 *94:31 *133:91 0.000128633
69 *103:26 *528:C 0.00066861
70 *103:26 *133:12 6.94775e-05
71 *107:10 *528:C 7.83659e-05
72 *107:21 *528:C 1.02504e-05
73 *107:53 *133:91 1.43455e-05
74 *107:81 *537:C 0.000268396
75 *108:18 *557:A3 0
76 *114:35 *541:A 5.03772e-05
77 *114:35 *133:91 2.70899e-05
78 *115:28 *133:91 0.000174527
79 *115:52 *557:A3 2.89016e-05
80 *129:40 *528:C 0.000783101
81 *129:40 *565:B1 4.38128e-05
*RES
1 *598:X *133:4 9.3 
2 *133:4 *133:6 1.35714 
3 *133:6 *133:12 13.0714 
4 *133:12 *528:C 27.05 
5 *133:12 *565:B1 9.83571 
6 *133:6 *133:34 0.732143 
7 *133:34 *133:40 13.5179 
8 *133:40 *133:42 4.5 
9 *133:42 *533:C1 14.4071 
10 *133:42 *540:A3 9.83571 
11 *133:40 *133:64 2.55357 
12 *133:64 *536:B_N 14.7643 
13 *133:64 *133:91 16.2184 
14 *133:91 *531:B 9.3 
15 *133:91 *541:A 11.3893 
16 *133:34 *526:B 9.72857 
17 *133:4 *133:116 2.91071 
18 *133:116 *557:A3 26.2464 
19 *133:116 *537:C 18.4607 
*END

*D_NET *134 0.00390363
*CONN
*I *505:B I *D sky130_fd_sc_hd__or4b_4
*I *525:B I *D sky130_fd_sc_hd__and3_1
*I *554:C I *D sky130_fd_sc_hd__or4_1
*I *532:B I *D sky130_fd_sc_hd__and3b_1
*I *504:B I *D sky130_fd_sc_hd__nor4b_1
*I *599:X O *D sky130_fd_sc_hd__buf_1
*CAP
1 *505:B 0
2 *525:B 2.55767e-05
3 *554:C 0.000180885
4 *532:B 0
5 *504:B 9.67204e-05
6 *599:X 0.00020192
7 *134:40 0.000455419
8 *134:27 0.000588539
9 *134:12 0.000514496
10 *134:6 0.000280114
11 *134:6 *505:C 0.000136951
12 *134:6 *136:29 2.89114e-05
13 *134:27 *525:C 3.60626e-05
14 *134:27 *136:29 0.000122939
15 *134:40 *525:C 8.91635e-05
16 *500:A *134:27 0
17 *525:A *554:C 1.21258e-05
18 *532:A_N *134:12 2.09413e-05
19 *538:B *134:27 3.79467e-05
20 *538:B *134:40 0.000117073
21 *539:A2 *504:B 1.32552e-05
22 *539:A3 *134:27 0
23 *554:A *554:C 5.62995e-05
24 *554:B *554:C 1.00733e-05
25 *599:A *134:6 2.77289e-05
26 *79:10 *134:27 0.000106953
27 *92:12 *134:40 5.52238e-05
28 *94:43 *134:40 8.50152e-05
29 *105:10 *134:12 0.000142352
30 *105:14 *504:B 9.41642e-05
31 *105:14 *134:27 4.08637e-05
32 *107:81 *504:B 3.45371e-05
33 *115:52 *554:C 7.48301e-06
34 *120:20 *134:40 0
35 *120:47 *554:C 7.77751e-05
36 *120:47 *134:40 4.14279e-05
37 *129:22 *134:12 0.000164696
*RES
1 *599:X *134:6 11.8893 
2 *134:6 *134:12 11.25 
3 *134:12 *504:B 11.0857 
4 *134:12 *134:27 9.94643 
5 *134:27 *532:B 13.8 
6 *134:27 *134:40 10.5357 
7 *134:40 *554:C 12.7286 
8 *134:40 *525:B 9.72857 
9 *134:6 *505:B 9.3 
*END

*D_NET *135 0.0141246
*CONN
*I *525:C I *D sky130_fd_sc_hd__and3_1
*I *505:C I *D sky130_fd_sc_hd__or4b_4
*I *563:B I *D sky130_fd_sc_hd__or2_1
*I *531:A_N I *D sky130_fd_sc_hd__and2b_1
*I *492:A I *D sky130_fd_sc_hd__inv_2
*I *526:C I *D sky130_fd_sc_hd__nand3_1
*I *541:B I *D sky130_fd_sc_hd__nor3b_2
*I *536:C I *D sky130_fd_sc_hd__and4bb_1
*I *528:D I *D sky130_fd_sc_hd__nand4_1
*I *565:A2 I *D sky130_fd_sc_hd__a21o_1
*I *600:X O *D sky130_fd_sc_hd__buf_2
*CAP
1 *525:C 0.000268848
2 *505:C 6.59527e-05
3 *563:B 0
4 *531:A_N 0.000203281
5 *492:A 1.99167e-05
6 *526:C 0
7 *541:B 0.000258902
8 *536:C 0.000175101
9 *528:D 0.000181394
10 *565:A2 9.41506e-05
11 *600:X 0
12 *135:99 0.000517012
13 *135:64 0.000737906
14 *135:51 0.000567216
15 *135:47 0.000118158
16 *135:43 0.000637709
17 *135:24 0.00051292
18 *135:20 0.000700902
19 *135:8 0.000699126
20 *135:6 0.000312232
21 *525:C *136:29 0.000100679
22 *135:8 *136:29 5.01213e-05
23 *135:20 *136:29 1.76039e-05
24 *501:A *135:99 3.57844e-05
25 *505:A *505:C 9.71197e-05
26 *522:B *135:20 0.000564061
27 *526:A *565:A2 9.0573e-05
28 *526:A *135:43 0.000234506
29 *533:A1 *135:64 6.19181e-05
30 *533:A1 *135:99 0.000262956
31 *541:C_N *541:B 0
32 *542:A *541:B 6.2589e-06
33 *543:B_N *536:C 9.7659e-05
34 *549:B *135:99 0
35 *559:C1 *541:B 2.04866e-05
36 *560:A1 *531:A_N 0
37 *560:A3 *531:A_N 0.00010326
38 *567:A *528:D 2.46649e-05
39 *568:C *528:D 0.000185643
40 *570:B1 *135:43 0.000184745
41 *570:B1 *135:51 0.000441724
42 *588:CLK *135:20 0.000345637
43 *592:A *525:C 0.000437467
44 *592:A *135:8 9.15804e-05
45 *592:A *135:20 0.000101545
46 *599:A *505:C 3.97677e-05
47 *599:A *135:20 0.000154497
48 *601:A *525:C 3.84385e-05
49 *56:25 *531:A_N 7.32272e-05
50 *56:25 *541:B 9.90367e-05
51 *76:27 *528:D 7.55515e-05
52 *76:27 *135:47 0
53 *76:27 *135:99 0
54 *78:40 *531:A_N 0
55 *78:40 *135:99 0
56 *89:12 *135:20 0.000315158
57 *89:22 *135:20 0.000166278
58 *89:22 *135:24 0.000706531
59 *89:36 *528:D 6.4915e-05
60 *94:12 *135:64 1.02969e-05
61 *94:23 *536:C 6.2589e-06
62 *94:23 *541:B 0
63 *98:10 *541:B 0.00014491
64 *103:18 *135:20 1.33343e-05
65 *103:18 *135:24 0.000523071
66 *107:21 *528:D 0
67 *107:21 *135:64 0
68 *107:53 *492:A 5.33433e-05
69 *107:53 *531:A_N 2.12521e-05
70 *107:53 *135:99 0.000106392
71 *108:18 *565:A2 1.74352e-05
72 *114:35 *541:B 6.80963e-05
73 *114:60 *135:99 0.00012401
74 *115:28 *492:A 9.90431e-05
75 *115:28 *531:A_N 5.43697e-05
76 *115:28 *541:B 0
77 *115:52 *525:C 1.95435e-05
78 *129:24 *565:A2 2.89114e-05
79 *129:40 *565:A2 0.000113554
80 *129:46 *135:64 0
81 *133:12 *565:A2 7.6021e-05
82 *133:12 *135:43 7.65529e-05
83 *133:40 *528:D 3.22304e-05
84 *133:40 *135:51 0.000402784
85 *133:40 *135:64 0.000308592
86 *133:64 *541:B 2.04825e-05
87 *133:64 *135:64 0.000175779
88 *133:91 *531:A_N 6.05161e-06
89 *134:6 *505:C 0.000136951
90 *134:27 *525:C 3.60626e-05
91 *134:40 *525:C 8.91635e-05
*RES
1 *600:X *135:6 13.8 
2 *135:6 *135:8 1.33929 
3 *135:8 *135:20 17.9286 
4 *135:20 *135:24 11.1964 
5 *135:24 *565:A2 16.6929 
6 *135:24 *135:43 14.5357 
7 *135:43 *135:47 5.23214 
8 *135:47 *135:51 8.73214 
9 *135:51 *528:D 18.425 
10 *135:51 *135:64 6.34821 
11 *135:64 *536:C 16.3804 
12 *135:64 *541:B 19.0232 
13 *135:47 *526:C 9.3 
14 *135:43 *135:99 6.5 
15 *135:99 *492:A 14.7464 
16 *135:99 *531:A_N 18.3714 
17 *135:20 *563:B 9.3 
18 *135:8 *505:C 15.5679 
19 *135:6 *525:C 21.4071 
*END

*D_NET *136 0.0137772
*CONN
*I *513:C1 I *D sky130_fd_sc_hd__o211a_1
*I *503:B I *D sky130_fd_sc_hd__and2b_1
*I *519:C1 I *D sky130_fd_sc_hd__o211a_1
*I *517:C1 I *D sky130_fd_sc_hd__o211a_1
*I *515:C1 I *D sky130_fd_sc_hd__o211a_1
*I *511:C1 I *D sky130_fd_sc_hd__o211a_1
*I *507:C1 I *D sky130_fd_sc_hd__o211a_1
*I *509:C1 I *D sky130_fd_sc_hd__o211a_1
*I *523:A I *D sky130_fd_sc_hd__nand2_2
*I *522:A I *D sky130_fd_sc_hd__and2_2
*I *601:X O *D sky130_fd_sc_hd__buf_2
*CAP
1 *513:C1 0
2 *503:B 0.000389402
3 *519:C1 0.000387258
4 *517:C1 2.3671e-05
5 *515:C1 2.76349e-05
6 *511:C1 0.000159516
7 *507:C1 4.93809e-05
8 *509:C1 1.63023e-05
9 *523:A 2.03441e-05
10 *522:A 0.00030248
11 *601:X 0
12 *136:118 0.000413689
13 *136:94 0.000695848
14 *136:83 0.00058051
15 *136:70 0.000494643
16 *136:57 0.000411283
17 *136:53 0.000843141
18 *136:38 0.000706345
19 *136:29 0.000898419
20 *136:4 0.00101463
21 *503:B *503:A_N 2.89016e-05
22 *503:B *571:CLK 3.34295e-05
23 *511:C1 *148:12 0
24 *136:70 *512:A 1.55885e-05
25 *136:70 *148:12 0.000359997
26 *495:A *519:C1 4.33438e-05
27 *498:A *503:B 0
28 *505:A *522:A 5.8685e-05
29 *505:D_N *522:A 0.000191835
30 *511:A2 *511:C1 0
31 *512:B *507:C1 0
32 *512:B *136:70 9.22103e-06
33 *513:A1 *503:B 0.000101545
34 *513:B1 *507:C1 5.71472e-05
35 *513:B1 *136:57 0.000618905
36 *515:A1 *515:C1 2.89114e-05
37 *515:B1 *136:83 0.000123419
38 *515:B1 *136:94 2.8266e-06
39 *517:B1 *519:C1 2.8266e-06
40 *517:B1 *136:94 5.35423e-05
41 *519:B1 *519:C1 1.97695e-05
42 *520:B *136:83 0
43 *521:A2 *503:B 0.00019096
44 *523:B *523:A 5.7661e-06
45 *525:C *136:29 0.000100679
46 *532:A_N *136:29 5.33005e-05
47 *599:A *136:29 0.000144773
48 *601:A *136:29 9.80173e-05
49 *627:A *519:C1 0.000272672
50 *79:10 *136:57 1.58163e-05
51 *79:14 *503:B 1.17968e-05
52 *79:14 *136:53 0.000125371
53 *79:14 *136:118 5.54856e-05
54 *79:36 *507:C1 5.62995e-05
55 *79:36 *136:57 5.74499e-06
56 *80:15 *136:29 0.000186447
57 *80:15 *136:38 4.88637e-05
58 *80:26 *509:C1 3.99614e-06
59 *80:26 *136:38 0.000202891
60 *80:26 *136:53 4.17014e-05
61 *80:39 *509:C1 9.7049e-06
62 *80:39 *136:53 0.000843889
63 *80:81 *136:57 0.000227532
64 *80:81 *136:70 0.000433262
65 *80:94 *136:83 0
66 *90:10 *136:29 0.00040381
67 *104:10 *503:B 0
68 *104:10 *136:53 0
69 *104:10 *136:118 0
70 *104:69 *136:94 0
71 *104:100 *503:B 0
72 *114:60 *522:A 3.65178e-05
73 *114:60 *136:29 8.6851e-05
74 *116:10 *519:C1 0
75 *116:10 *136:83 0
76 *116:10 *136:94 0
77 *116:23 *519:C1 0
78 *117:45 *517:C1 5.52302e-05
79 *118:36 *519:C1 0.000122091
80 *120:47 *503:B 3.80904e-05
81 *126:24 *503:B 5.52238e-05
82 *126:24 *136:94 0
83 *129:16 *136:29 0.00026353
84 *129:22 *522:A 0
85 *130:21 *511:C1 5.71472e-05
86 *132:81 *522:A 0.000119778
87 *134:6 *136:29 2.89114e-05
88 *134:27 *136:29 0.000122939
89 *135:8 *136:29 5.01213e-05
90 *135:20 *136:29 1.76039e-05
*RES
1 *601:X *136:4 9.3 
2 *136:4 *522:A 24.0321 
3 *136:4 *136:29 25.9643 
4 *136:29 *523:A 9.72857 
5 *136:29 *136:38 4.23214 
6 *136:38 *509:C1 9.72857 
7 *136:38 *136:53 15.7321 
8 *136:53 *136:57 11.6071 
9 *136:57 *507:C1 10.9786 
10 *136:57 *136:70 8.73214 
11 *136:70 *511:C1 16.5857 
12 *136:70 *136:83 5.58929 
13 *136:83 *515:C1 14.3357 
14 *136:83 *136:94 4.98214 
15 *136:94 *517:C1 14.3357 
16 *136:94 *519:C1 21.6929 
17 *136:53 *136:118 0.732143 
18 *136:118 *503:B 22.5857 
19 *136:118 *513:C1 13.8 
*END

*D_NET *137 0.000483523
*CONN
*I *571:CLK I *D sky130_fd_sc_hd__dfxtp_1
*I *502:Y O *D sky130_fd_sc_hd__inv_2
*CAP
1 *571:CLK 0.000129059
2 *502:Y 0.000129059
3 *503:B *571:CLK 3.34295e-05
4 *521:A2 *571:CLK 6.42145e-05
5 *120:47 *571:CLK 3.06406e-05
6 *128:37 *571:CLK 9.71197e-05
*RES
1 *502:Y *571:CLK 30.1893 
*END

*D_NET *138 0.00135573
*CONN
*I *503:A_N I *D sky130_fd_sc_hd__and2b_1
*I *602:X O *D sky130_fd_sc_hd__dlygate4sd3_1
*CAP
1 *503:A_N 0.000358312
2 *602:X 0.000358312
3 *503:B *503:A_N 2.89016e-05
4 *513:A1 *503:A_N 9.41642e-05
5 *521:A2 *503:A_N 0
6 *545:B1 *503:A_N 2.89114e-05
7 *571:D *503:A_N 0.000168963
8 *111:10 *503:A_N 0
9 *111:44 *503:A_N 0
10 *115:54 *503:A_N 9.71197e-05
11 *126:24 *503:A_N 0.000221046
*RES
1 *602:X *503:A_N 36.0643 
*END

*D_NET *139 0.0026478
*CONN
*I *521:A1 I *D sky130_fd_sc_hd__o211a_1
*I *603:X O *D sky130_fd_sc_hd__dlygate4sd3_1
*CAP
1 *521:A1 0.000838575
2 *603:X 0.000838575
3 *497:A *521:A1 9.60875e-05
4 *579:CLK *521:A1 0.000158764
5 *585:CLK *521:A1 0.000127426
6 *585:D *521:A1 0.000173823
7 *117:20 *521:A1 3.19457e-05
8 *117:45 *521:A1 0.000382608
*RES
1 *603:X *521:A1 33.0643 
*END

*D_NET *140 0.000546121
*CONN
*I *579:D I *D sky130_fd_sc_hd__dfxtp_1
*I *604:X O *D sky130_fd_sc_hd__dlygate4sd3_1
*CAP
1 *579:D 0.000208088
2 *604:X 0.000208088
3 *520:A *579:D 0
4 *551:B1 *579:D 0.000129944
*RES
1 *604:X *579:D 31.158 
*END

*D_NET *141 0.000666091
*CONN
*I *510:A I *D sky130_fd_sc_hd__or2_1
*I *605:X O *D sky130_fd_sc_hd__dlygate4sd3_1
*CAP
1 *510:A 0.000283527
2 *605:X 0.000283527
3 *130:21 *510:A 9.90367e-05
*RES
1 *605:X *510:A 23.6536 
*END

*D_NET *142 0.0047545
*CONN
*I *632:A I *D sky130_fd_sc_hd__buf_2
*I *508:A I *D sky130_fd_sc_hd__or2_1
*I *573:Q O *D sky130_fd_sc_hd__dfxtp_1
*CAP
1 *632:A 0.00182877
2 *508:A 0.000167262
3 *573:Q 0.000112636
4 *142:10 0.00210867
5 *508:B *508:A 0.000363837
6 *508:B *632:A 0.000173328
7 *508:B *142:10 0
*RES
1 *573:Q *142:10 20.2464 
2 *142:10 *508:A 13.5321 
3 *142:10 *632:A 40.6393 
*END

*D_NET *143 0.000673003
*CONN
*I *518:A I *D sky130_fd_sc_hd__or2_1
*I *606:X O *D sky130_fd_sc_hd__dlygate4sd3_1
*CAP
1 *518:A 0.000100385
2 *606:X 0.000100385
3 dac_in_n[5] *518:A 7.43578e-06
4 *494:A *518:A 0.000363837
5 *519:B1 *518:A 0.00010096
*RES
1 *606:X *518:A 22.0107 
*END

*D_NET *144 0.001305
*CONN
*I *516:A I *D sky130_fd_sc_hd__or2_1
*I *607:X O *D sky130_fd_sc_hd__dlygate4sd3_1
*CAP
1 *516:A 0.000541121
2 *607:X 0.000541121
3 *516:A *150:8 2.27416e-05
4 *518:B *516:A 7.252e-05
5 *577:D *516:A 9.57507e-06
6 *80:107 *516:A 5.16852e-05
7 *128:37 *516:A 6.04256e-05
8 *130:36 *516:A 5.80706e-06
*RES
1 *607:X *516:A 35.4214 
*END

*D_NET *145 0.00104015
*CONN
*I *514:A I *D sky130_fd_sc_hd__or2_1
*I *608:X O *D sky130_fd_sc_hd__dlygate4sd3_1
*CAP
1 *514:A 0.000346659
2 *608:X 0.000346659
3 *514:A *634:A 0.00029161
4 *514:B *514:A 5.52238e-05
5 *130:36 *514:A 0
*RES
1 *608:X *514:A 34.4036 
*END

*D_NET *146 0.000385854
*CONN
*I *512:A I *D sky130_fd_sc_hd__or2_1
*I *609:X O *D sky130_fd_sc_hd__dlygate4sd3_1
*CAP
1 *512:A 2.96219e-05
2 *609:X 2.96219e-05
3 *512:A *148:12 2.14757e-05
4 *512:B *512:A 0.000289546
5 *136:70 *512:A 1.55885e-05
*RES
1 *609:X *512:A 20.3679 
*END

*D_NET *147 0.00234476
*CONN
*I *605:A I *D sky130_fd_sc_hd__dlygate4sd3_1
*I *633:A I *D sky130_fd_sc_hd__buf_2
*I *574:Q O *D sky130_fd_sc_hd__dfxtp_1
*CAP
1 *605:A 9.78013e-05
2 *633:A 0.000446328
3 *574:Q 0.000273183
4 *147:8 0.000817312
5 *631:A *633:A 0.000590834
6 *631:A *147:8 0.000119297
*RES
1 *574:Q *147:8 17.6214 
2 *147:8 *633:A 24.5143 
3 *147:8 *605:A 15.4429 
*END

*D_NET *148 0.00386472
*CONN
*I *634:A I *D sky130_fd_sc_hd__buf_2
*I *609:A I *D sky130_fd_sc_hd__dlygate4sd3_1
*I *575:Q O *D sky130_fd_sc_hd__dfxtp_1
*CAP
1 *634:A 0.00117197
2 *609:A 0
3 *575:Q 0.000238971
4 *148:12 0.00141094
5 *507:B1 *148:12 0
6 *511:C1 *148:12 0
7 *512:A *148:12 2.14757e-05
8 *512:B *148:12 0.000144773
9 *514:A *634:A 0.00029161
10 *514:B *634:A 5.52238e-05
11 *515:B1 *634:A 7.65658e-05
12 *80:81 *634:A 4.58976e-05
13 *80:81 *148:12 4.72917e-05
14 *136:70 *148:12 0.000359997
*RES
1 *575:Q *148:12 24.175 
2 *148:12 *609:A 9.3 
3 *148:12 *634:A 31.2107 
*END

*D_NET *149 0.00200602
*CONN
*I *608:A I *D sky130_fd_sc_hd__dlygate4sd3_1
*I *635:A I *D sky130_fd_sc_hd__buf_2
*I *576:Q O *D sky130_fd_sc_hd__dfxtp_1
*CAP
1 *608:A 0
2 *635:A 0.000746284
3 *576:Q 0.000256723
4 *149:8 0.00100301
*RES
1 *576:Q *149:8 13.55 
2 *149:8 *635:A 30.8357 
3 *149:8 *608:A 9.3 
*END

*D_NET *150 0.00175278
*CONN
*I *636:A I *D sky130_fd_sc_hd__buf_2
*I *607:A I *D sky130_fd_sc_hd__dlygate4sd3_1
*I *577:Q O *D sky130_fd_sc_hd__dfxtp_1
*CAP
1 *636:A 0.000340352
2 *607:A 0
3 *577:Q 0.000153022
4 *150:8 0.000493373
5 *516:A *150:8 2.27416e-05
6 *128:37 *636:A 0.000540398
7 *128:37 *150:8 0.000202891
*RES
1 *577:Q *150:8 13.4429 
2 *150:8 *607:A 9.3 
3 *150:8 *636:A 18.4607 
*END

*D_NET *151 0.00315989
*CONN
*I *606:A I *D sky130_fd_sc_hd__dlygate4sd3_1
*I *637:A I *D sky130_fd_sc_hd__buf_2
*I *578:Q O *D sky130_fd_sc_hd__dfxtp_1
*CAP
1 *606:A 0.000230904
2 *637:A 0.000203601
3 *578:Q 0.000409688
4 *151:10 0.000844192
5 dac_in_n[5] *606:A 3.48705e-05
6 *613:A *637:A 0.00070948
7 *613:A *151:10 0.000580978
8 *628:A *606:A 5.71472e-05
9 *629:A *606:A 0
10 *629:A *637:A 8.90314e-05
*RES
1 *578:Q *151:10 19.9964 
2 *151:10 *637:A 20.4964 
3 *151:10 *606:A 18.1214 
*END
